generated by phonopy                    
   1.0000000000000000     
     8.3871423140825687    0.0000000000000000    0.0000000000000000
     0.0000000000000000    8.3871423140825687    0.0000000000000000
     0.0000000000000000    0.0000000000000000    8.3871423140825687
   Mg   O 
    31    32
Direct
  0.0000000000000000  0.0000000000000000  0.0000000000000000
  0.5000000000000000  0.0000000000000000  0.0000000000000000
  0.0000000000000000  0.5000000000000000  0.0000000000000000
  0.5000000000000000  0.5000000000000000  0.0000000000000000
  0.0000000000000000  0.0000000000000000  0.5000000000000000
  0.5000000000000000  0.0000000000000000  0.5000000000000000
  0.0000000000000000  0.5000000000000000  0.5000000000000000
  0.0000000000000000  0.2501826183544869  0.2501826183544869
  0.5000000000000000  0.2558216423144676  0.2558216423144676
 -0.0000000000000000  0.7498173816455131  0.2501826183544869
  0.5000000000000000  0.7441783576855324  0.2558216423144676
 -0.0000000000000000  0.2501826183544869  0.7498173816455131
  0.5000000000000000  0.2558216423144676  0.7441783576855324
  0.0000000000000000  0.7498173816455131  0.7498173816455131
  0.5000000000000000  0.7441783576855324  0.7441783576855324
  0.2501826183544869  0.0000000000000000  0.2501826183544869
  0.7498173816455131  0.0000000000000000  0.2501826183544869
  0.2558216423144676  0.5000000000000000  0.2558216423144676
  0.7441783576855324  0.5000000000000000  0.2558216423144676
  0.2501826183544869  0.0000000000000000  0.7498173816455131
  0.7498173816455131  0.0000000000000000  0.7498173816455131
  0.2558216423144676  0.5000000000000000  0.7441783576855324
  0.7441783576855324  0.5000000000000000  0.7441783576855324
  0.2501826183544869  0.2501826183544869  0.0000000000000000
  0.7498173816455131  0.2501826183544869 -0.0000000000000000
  0.2501826183544869  0.7498173816455131 -0.0000000000000000
  0.7498173816455131  0.7498173816455131 -0.0000000000000000
  0.2558216423144676  0.2558216423144676  0.5000000000000000
  0.7441783576855324  0.2558216423144676  0.5000000000000000
  0.2558216423144676  0.7441783576855324  0.5000000000000000
  0.7441783576855324  0.7441783576855324  0.5000000000000000
  0.2499783203790641  0.0000000000000000  0.0000000000000000
  0.7500216796209360  0.0000000000000000  0.0000000000000000
  0.2494656437475888  0.5000000000000000  0.0000000000000000
  0.7505343562524112  0.5000000000000000  0.0000000000000000
  0.2494656437475888  0.0000000000000000  0.5000000000000000
  0.7505343562524112  0.0000000000000000  0.5000000000000000
  0.2379436559628937  0.5000000000000000  0.5000000000000000
  0.7620563440371061  0.5000000000000000  0.5000000000000000
  0.2507667606124103  0.2507667606124103  0.2507667606124103
  0.7492332393875898  0.2507667606124103  0.2507667606124103
  0.2507667606124103  0.7492332393875898  0.2507667606124103
  0.7492332393875898  0.7492332393875898  0.2507667606124103
  0.2507667606124103  0.2507667606124103  0.7492332393875898
  0.7492332393875898  0.2507667606124103  0.7492332393875898
  0.2507667606124103  0.7492332393875898  0.7492332393875898
  0.7492332393875898  0.7492332393875898  0.7492332393875898
  0.0000000000000000  0.0000000000000000  0.2499783203790641
  0.5000000000000000  0.0000000000000000  0.2494656437475888
  0.0000000000000000  0.5000000000000000  0.2494656437475888
  0.5000000000000000  0.5000000000000000  0.2379436559628937
  0.0000000000000000  0.0000000000000000  0.7500216796209360
  0.5000000000000000  0.0000000000000000  0.7505343562524112
  0.0000000000000000  0.5000000000000000  0.7505343562524112
  0.5000000000000000  0.5000000000000000  0.7620563440371061
  0.0000000000000000  0.2499783203790641  0.0000000000000000
  0.5000000000000000  0.2494656437475888  0.0000000000000000
  0.0000000000000000  0.7500216796209360 -0.0000000000000000
  0.5000000000000000  0.7505343562524112 -0.0000000000000000
  0.0000000000000000  0.2494656437475888  0.5000000000000000
  0.5000000000000000  0.2379436559628937  0.5000000000000000
  0.0000000000000000  0.7505343562524112  0.5000000000000000
  0.5000000000000000  0.7620563440371061  0.5000000000000000

  0.00000000E+00  0.00000000E+00  0.00000000E+00
  0.00000000E+00  0.00000000E+00  0.00000000E+00
  0.00000000E+00  0.00000000E+00  0.00000000E+00
  0.00000000E+00  0.00000000E+00  0.00000000E+00
  0.00000000E+00  0.00000000E+00  0.00000000E+00
  0.00000000E+00  0.00000000E+00  0.00000000E+00
  0.00000000E+00  0.00000000E+00  0.00000000E+00
  0.00000000E+00  0.00000000E+00  0.00000000E+00
  0.00000000E+00  0.00000000E+00  0.00000000E+00
  0.00000000E+00  0.00000000E+00  0.00000000E+00
  0.00000000E+00  0.00000000E+00  0.00000000E+00
  0.00000000E+00  0.00000000E+00  0.00000000E+00
  0.00000000E+00  0.00000000E+00  0.00000000E+00
  0.00000000E+00  0.00000000E+00  0.00000000E+00
  0.00000000E+00  0.00000000E+00  0.00000000E+00
  0.00000000E+00  0.00000000E+00  0.00000000E+00
  0.00000000E+00  0.00000000E+00  0.00000000E+00
  0.00000000E+00  0.00000000E+00  0.00000000E+00
  0.00000000E+00  0.00000000E+00  0.00000000E+00
  0.00000000E+00  0.00000000E+00  0.00000000E+00
  0.00000000E+00  0.00000000E+00  0.00000000E+00
  0.00000000E+00  0.00000000E+00  0.00000000E+00
  0.00000000E+00  0.00000000E+00  0.00000000E+00
  0.00000000E+00  0.00000000E+00  0.00000000E+00
  0.00000000E+00  0.00000000E+00  0.00000000E+00
  0.00000000E+00  0.00000000E+00  0.00000000E+00
  0.00000000E+00  0.00000000E+00  0.00000000E+00
  0.00000000E+00  0.00000000E+00  0.00000000E+00
  0.00000000E+00  0.00000000E+00  0.00000000E+00
  0.00000000E+00  0.00000000E+00  0.00000000E+00
  0.00000000E+00  0.00000000E+00  0.00000000E+00
  0.00000000E+00  0.00000000E+00  0.00000000E+00
  0.00000000E+00  0.00000000E+00  0.00000000E+00
  0.00000000E+00  0.00000000E+00  0.00000000E+00
  0.00000000E+00  0.00000000E+00  0.00000000E+00
  0.00000000E+00  0.00000000E+00  0.00000000E+00
  0.00000000E+00  0.00000000E+00  0.00000000E+00
  0.00000000E+00  0.00000000E+00  0.00000000E+00
  0.00000000E+00  0.00000000E+00  0.00000000E+00
  0.00000000E+00  0.00000000E+00  0.00000000E+00
  0.00000000E+00  0.00000000E+00  0.00000000E+00
  0.00000000E+00  0.00000000E+00  0.00000000E+00
  0.00000000E+00  0.00000000E+00  0.00000000E+00
  0.00000000E+00  0.00000000E+00  0.00000000E+00
  0.00000000E+00  0.00000000E+00  0.00000000E+00
  0.00000000E+00  0.00000000E+00  0.00000000E+00
  0.00000000E+00  0.00000000E+00  0.00000000E+00
  0.00000000E+00  0.00000000E+00  0.00000000E+00
  0.00000000E+00  0.00000000E+00  0.00000000E+00
  0.00000000E+00  0.00000000E+00  0.00000000E+00
  0.00000000E+00  0.00000000E+00  0.00000000E+00
  0.00000000E+00  0.00000000E+00  0.00000000E+00
  0.00000000E+00  0.00000000E+00  0.00000000E+00
  0.00000000E+00  0.00000000E+00  0.00000000E+00
  0.00000000E+00  0.00000000E+00  0.00000000E+00
  0.00000000E+00  0.00000000E+00  0.00000000E+00
  0.00000000E+00  0.00000000E+00  0.00000000E+00
  0.00000000E+00  0.00000000E+00  0.00000000E+00
  0.00000000E+00  0.00000000E+00  0.00000000E+00
  0.00000000E+00  0.00000000E+00  0.00000000E+00
  0.00000000E+00  0.00000000E+00  0.00000000E+00
  0.00000000E+00  0.00000000E+00  0.00000000E+00
  0.00000000E+00  0.00000000E+00  0.00000000E+00
