generated by phonopy                    
   1.0000000000000000     
     8.3871423140825687    0.0000000000000000    0.0000000000000000
     0.0000000000000000    8.3871423140825687    0.0000000000000000
     0.0000000000000000    0.0000000000000000    8.3871423140825687
   Mg   O 
    33    31
Direct
  0.7498104530424337  0.5000422217094201  0.5000867919002339
  0.0012316574021044 -0.0015024126214060 -0.0008119737564876
  0.4987892562361631  0.0014948266182274  0.0007971638446243
  0.0061133796910781  0.4990062392841526 -0.0046692548177168
  0.4938813303256804  0.5010006566351310  0.0046566035566820
  0.0060913411694656 -0.0055822535746270  0.4996053318235268
  0.4939039706206992  0.0055578533697339  0.5003941350500974
  0.0268545407734393  0.4854378248625940  0.4873638112335990
  0.4732208702409594  0.5145349845213921  0.5126210847600587
  0.0030591258243539  0.2471853680259656  0.2476910857362243
  0.5043006098057662  0.2511117186587398  0.2505459608936220
 -0.0008472945809277  0.7460080331447586  0.2499807682785764
  0.4996024565100582  0.7507007718889600  0.2531451831902405
  0.0004013811713388  0.2492881186169059  0.7468836697405740
  0.5008587014953415  0.2540243265726250  0.7500061192272103
 -0.0043189316564753  0.7488879309007692  0.7494546147177802
  0.4969692730392849  0.7527681118540821  0.7522664939730404
  0.2508039685325730 -0.0007024440315640  0.2488421138530801
  0.7504570593958769 -0.0040335374984093  0.2438108152196865
  0.2544117238955090  0.4997564489889128  0.2437969934019872
  0.7632897006991087  0.4873003204816368  0.2231997835995484
  0.2492231642727005  0.0006893152685697  0.7511491923254378
  0.7495484177041930  0.0040353677057205  0.7561945275288429
  0.2455749938244710  0.5002532332665136  0.7561984762396452
  0.7367170561496740  0.5126898530781876  0.7767940438467368
  0.2515011613172256  0.2487546099695512 -0.0007275767877927
  0.7509983454209392  0.2438489035896950 -0.0043120679017926
  0.2485290658828999  0.7512418125156933  0.0007088379621889
  0.7490068446247333  0.7561550931757400  0.0043156216296585
  0.2554993599278146  0.2438490771977304  0.4997918965121977
  0.7646381730956028  0.2232068181935012  0.4879081388983343
  0.2444946535563336  0.7561422456928301  0.5002110896301758
  0.7353536929763947  0.7768246850645397  0.5121009684241987
  0.2500080021738104 -0.0000014626577873 -0.0000039131544867
  0.7500066867713576  0.0000052372911457  0.0000034259607644
  0.2499944201502795  0.5000002694984709  0.0000039632129469
  0.7499869117220755  0.5000101529927550 -0.0000606489967273
  0.2499949470581052  0.0000069746371392  0.4999975607412782
  0.7499855233899145 -0.0000578879062890  0.5000064646565495
  0.2501039171436956  0.5000044452185229  0.5000099258296380
  0.2539506872758986  0.2494750013094944  0.2492694515685485
  0.7515383191743025  0.2357472204081723  0.2354368830874209
  0.2490943076232563  0.7500082667413311  0.2497430942446547
  0.7491769156420128  0.7478959454012425  0.2520004345772797
  0.2508837949588094  0.2499893774554034  0.7502468871458896
  0.7508227292601127  0.2521132966782075  0.7480141536486326
  0.2460326734912548  0.7505229335142392  0.7507237727465793
  0.7484988342022870  0.7642756344437623  0.7645797164665142
  0.0007876947936947 -0.0036833410398964  0.2489747830574229
  0.5002950797997717  0.0011898412947882  0.2499815387253534
  0.0147323424435894  0.4988057809515109  0.2349651508643142
  0.5024813516389679  0.5011343691770543  0.2523161038501706
 -0.0002812602494274 -0.0011812759237370  0.7500153515136136
  0.4992296734095813  0.0036848046944632  0.7510145932235357
 -0.0025008741784423  0.4988729426260391  0.7476978921139238
  0.4852290149010178  0.5011637537356916  0.7650708522021443
  0.0017042143210519  0.2482555222567237 -0.0029481996715750
  0.5009572129119266  0.2509053892270420  0.0002719916616492
 -0.0009389538944412  0.7490962945638213 -0.0002604685201197
  0.4983102125504032  0.7517413389470010  0.0029543969400250
  0.0165416700941643  0.2334160379380406  0.4999120522589054
  0.5034992778223278  0.2534819110155043  0.5002954615380775
 -0.0035247274460101  0.7465284756329122  0.4997085008279354
  0.4834298986578393  0.7666166267509568  0.5000583839451233

  0.00000000E+00  0.00000000E+00  0.00000000E+00
  0.00000000E+00  0.00000000E+00  0.00000000E+00
  0.00000000E+00  0.00000000E+00  0.00000000E+00
  0.00000000E+00  0.00000000E+00  0.00000000E+00
  0.00000000E+00  0.00000000E+00  0.00000000E+00
  0.00000000E+00  0.00000000E+00  0.00000000E+00
  0.00000000E+00  0.00000000E+00  0.00000000E+00
  0.00000000E+00  0.00000000E+00  0.00000000E+00
  0.00000000E+00  0.00000000E+00  0.00000000E+00
  0.00000000E+00  0.00000000E+00  0.00000000E+00
  0.00000000E+00  0.00000000E+00  0.00000000E+00
  0.00000000E+00  0.00000000E+00  0.00000000E+00
  0.00000000E+00  0.00000000E+00  0.00000000E+00
  0.00000000E+00  0.00000000E+00  0.00000000E+00
  0.00000000E+00  0.00000000E+00  0.00000000E+00
  0.00000000E+00  0.00000000E+00  0.00000000E+00
  0.00000000E+00  0.00000000E+00  0.00000000E+00
  0.00000000E+00  0.00000000E+00  0.00000000E+00
  0.00000000E+00  0.00000000E+00  0.00000000E+00
  0.00000000E+00  0.00000000E+00  0.00000000E+00
  0.00000000E+00  0.00000000E+00  0.00000000E+00
  0.00000000E+00  0.00000000E+00  0.00000000E+00
  0.00000000E+00  0.00000000E+00  0.00000000E+00
  0.00000000E+00  0.00000000E+00  0.00000000E+00
  0.00000000E+00  0.00000000E+00  0.00000000E+00
  0.00000000E+00  0.00000000E+00  0.00000000E+00
  0.00000000E+00  0.00000000E+00  0.00000000E+00
  0.00000000E+00  0.00000000E+00  0.00000000E+00
  0.00000000E+00  0.00000000E+00  0.00000000E+00
  0.00000000E+00  0.00000000E+00  0.00000000E+00
  0.00000000E+00  0.00000000E+00  0.00000000E+00
  0.00000000E+00  0.00000000E+00  0.00000000E+00
  0.00000000E+00  0.00000000E+00  0.00000000E+00
  0.00000000E+00  0.00000000E+00  0.00000000E+00
  0.00000000E+00  0.00000000E+00  0.00000000E+00
  0.00000000E+00  0.00000000E+00  0.00000000E+00
  0.00000000E+00  0.00000000E+00  0.00000000E+00
  0.00000000E+00  0.00000000E+00  0.00000000E+00
  0.00000000E+00  0.00000000E+00  0.00000000E+00
  0.00000000E+00  0.00000000E+00  0.00000000E+00
  0.00000000E+00  0.00000000E+00  0.00000000E+00
  0.00000000E+00  0.00000000E+00  0.00000000E+00
  0.00000000E+00  0.00000000E+00  0.00000000E+00
  0.00000000E+00  0.00000000E+00  0.00000000E+00
  0.00000000E+00  0.00000000E+00  0.00000000E+00
  0.00000000E+00  0.00000000E+00  0.00000000E+00
  0.00000000E+00  0.00000000E+00  0.00000000E+00
  0.00000000E+00  0.00000000E+00  0.00000000E+00
  0.00000000E+00  0.00000000E+00  0.00000000E+00
  0.00000000E+00  0.00000000E+00  0.00000000E+00
  0.00000000E+00  0.00000000E+00  0.00000000E+00
  0.00000000E+00  0.00000000E+00  0.00000000E+00
  0.00000000E+00  0.00000000E+00  0.00000000E+00
  0.00000000E+00  0.00000000E+00  0.00000000E+00
  0.00000000E+00  0.00000000E+00  0.00000000E+00
  0.00000000E+00  0.00000000E+00  0.00000000E+00
  0.00000000E+00  0.00000000E+00  0.00000000E+00
  0.00000000E+00  0.00000000E+00  0.00000000E+00
  0.00000000E+00  0.00000000E+00  0.00000000E+00
  0.00000000E+00  0.00000000E+00  0.00000000E+00
  0.00000000E+00  0.00000000E+00  0.00000000E+00
  0.00000000E+00  0.00000000E+00  0.00000000E+00
  0.00000000E+00  0.00000000E+00  0.00000000E+00
  0.00000000E+00  0.00000000E+00  0.00000000E+00
