generated by phonopy                    
   1.0000000000000000     
     8.3871423140825687    0.0000000000000000    0.0000000000000000
     0.0000000000000000    8.3871423140825687    0.0000000000000000
     0.0000000000000000    0.0000000000000000    8.3871423140825687
   Mg   O 
    31    33
Direct
 -0.0000947564236269  0.9995524667852151  0.0004604009451544
  0.4999225364375678  0.9963753957649623  0.0036439736919033
  0.9999937882681291  0.5016480826676244  0.9995825474384261
  0.5000222692275725  0.5014504120655437  0.0088863697875861
 -0.0000076214710878  0.0004035669855310  0.4983550017221655
  0.5000192391439302  0.9911435967100710  0.4985571877932871
  0.0002461377235013  0.5051530875256767  0.4948392062550522
 -0.0000159681945902  0.2526302429692894  0.2491981924360221
  0.4999674488303145  0.2584406777623147  0.2435110955810670
  1.0000235011033141  0.7504748327405015  0.2495242854748942
  0.5000270289573079  0.7405499835875630  0.2594606923376695
 -0.0000587686006339  0.2496321108097859  0.7503831696437868
  0.4998788761223842  0.2356865170483401  0.7643258667270996
  0.9999812543863392  0.7508069217778263  0.7473777277488241
  0.4999641698671273  0.7565241701106236  0.7415609370496696
  0.2508053651406046  0.0013587953337808  0.2512153177236949
  0.7491361677645301  0.0013911707928884  0.2512007035119762
  0.2546759631841846  0.5014223680975063  0.2570184532803230
  0.7454827196698307  0.5014671279787897  0.2569928095599768
  0.2481552166564884  0.9998210450178328  0.7482622935101202
  0.7516857365191526  0.9998620401525325  0.7482155395869520
  0.2408544856764305  0.4996662084639632  0.7418482520616148
  0.7591715962097543  0.4997074548182519  0.7417405222877654
  0.2481679406275944  0.2517573497724682  0.0001862049320783
  0.7516769822214444  0.2518051028724478  0.0001468271985113
  0.2508137943031991  0.7487878663305533  0.9986343420338211
  0.7491274555477661  0.7488035935589440  0.9986037210287847
  0.2408390276462199  0.2581397747504156  0.5003465884121482
  0.7591915401281981  0.2582488221134855  0.5003062460476793
  0.2546756423888021  0.7429830280712270  0.4985901203316713
  0.7454816813506047  0.7430093129318570  0.4985462432056670
  0.2513459130584896  0.0005148397113580  0.9994998479805480
  0.7483818893443747  0.0005831942255767  0.9994366071605989
  0.2544726269451635  0.4999356294308045  0.9925228851904304
  0.7455659739757201  0.4999624511284498  0.9925228498905425
  0.2544398391865257  0.0074503038833059  0.5000775728390235
  0.7455922393321320  0.0074558656579131  0.5000476501863734
  0.2254974761839947  0.5016853442912917  0.4983225465001235
  0.7751242524073148  0.5018266266687098  0.4981745968414990
  0.2524661011081644  0.2518613591008804  0.2511496466983297
  0.7474668679013079  0.2519201664071051  0.2512122291320698
  0.2519778014474315  0.7514771810437065  0.2485260693065199
  0.7480803741516733  0.7514965508811939  0.2485035347976960
  0.2504824864183832  0.2498267663545457  0.7501774558308550
  0.7492823314900831  0.2499940182505739  0.7500124392068049
  0.2524561302039818  0.7488617299414776  0.7481432130245174
  0.7474605668199635  0.7487971532323328  0.7480887127297412
 -0.0000643124219355  0.0018000153289467  0.2487037838424763
  0.4999698079305295  0.0079678163123165  0.2528816112885463
  1.0001436767881786  0.5011568486112196  0.2420970772388518
  0.5000695573291949  0.4988582583239608  0.2391047999373642
  0.9998644651018124  0.0000543690288269  0.7502116565464542
  0.4999229405920901  0.0011443318865615  0.7491752217913237
  1.0000298778476253  0.5002849577724056  0.7538738065761335
  0.4997903167685297  0.4790329931922955  0.7236135939060669
  0.9998648345844656  0.2498016514166686  0.9999599237622986
  0.4999283024922059  0.2508636381319930  0.9988398237364263
  0.9999316280661056  0.7513015527086964  0.9982040102221734
  0.4999739911688653  0.7471105211992967  0.9920365693591255
  0.0000302995424785  0.2461391307009439  0.4997335162793838
  0.4998040135986058  0.2762275925803329  0.5209093023890058
  1.0001267639230609  0.7578710579969695  0.4988530167801615
  0.5000700844128618  0.7609405913211500  0.5011747515468064
  0.5006404318883666  0.4470923669103638  0.5526888381362862

  0.00000000E+00  0.00000000E+00  0.00000000E+00
  0.00000000E+00  0.00000000E+00  0.00000000E+00
  0.00000000E+00  0.00000000E+00  0.00000000E+00
  0.00000000E+00  0.00000000E+00  0.00000000E+00
  0.00000000E+00  0.00000000E+00  0.00000000E+00
  0.00000000E+00  0.00000000E+00  0.00000000E+00
  0.00000000E+00  0.00000000E+00  0.00000000E+00
  0.00000000E+00  0.00000000E+00  0.00000000E+00
  0.00000000E+00  0.00000000E+00  0.00000000E+00
  0.00000000E+00  0.00000000E+00  0.00000000E+00
  0.00000000E+00  0.00000000E+00  0.00000000E+00
  0.00000000E+00  0.00000000E+00  0.00000000E+00
  0.00000000E+00  0.00000000E+00  0.00000000E+00
  0.00000000E+00  0.00000000E+00  0.00000000E+00
  0.00000000E+00  0.00000000E+00  0.00000000E+00
  0.00000000E+00  0.00000000E+00  0.00000000E+00
  0.00000000E+00  0.00000000E+00  0.00000000E+00
  0.00000000E+00  0.00000000E+00  0.00000000E+00
  0.00000000E+00  0.00000000E+00  0.00000000E+00
  0.00000000E+00  0.00000000E+00  0.00000000E+00
  0.00000000E+00  0.00000000E+00  0.00000000E+00
  0.00000000E+00  0.00000000E+00  0.00000000E+00
  0.00000000E+00  0.00000000E+00  0.00000000E+00
  0.00000000E+00  0.00000000E+00  0.00000000E+00
  0.00000000E+00  0.00000000E+00  0.00000000E+00
  0.00000000E+00  0.00000000E+00  0.00000000E+00
  0.00000000E+00  0.00000000E+00  0.00000000E+00
  0.00000000E+00  0.00000000E+00  0.00000000E+00
  0.00000000E+00  0.00000000E+00  0.00000000E+00
  0.00000000E+00  0.00000000E+00  0.00000000E+00
  0.00000000E+00  0.00000000E+00  0.00000000E+00
  0.00000000E+00  0.00000000E+00  0.00000000E+00
  0.00000000E+00  0.00000000E+00  0.00000000E+00
  0.00000000E+00  0.00000000E+00  0.00000000E+00
  0.00000000E+00  0.00000000E+00  0.00000000E+00
  0.00000000E+00  0.00000000E+00  0.00000000E+00
  0.00000000E+00  0.00000000E+00  0.00000000E+00
  0.00000000E+00  0.00000000E+00  0.00000000E+00
  0.00000000E+00  0.00000000E+00  0.00000000E+00
  0.00000000E+00  0.00000000E+00  0.00000000E+00
  0.00000000E+00  0.00000000E+00  0.00000000E+00
  0.00000000E+00  0.00000000E+00  0.00000000E+00
  0.00000000E+00  0.00000000E+00  0.00000000E+00
  0.00000000E+00  0.00000000E+00  0.00000000E+00
  0.00000000E+00  0.00000000E+00  0.00000000E+00
  0.00000000E+00  0.00000000E+00  0.00000000E+00
  0.00000000E+00  0.00000000E+00  0.00000000E+00
  0.00000000E+00  0.00000000E+00  0.00000000E+00
  0.00000000E+00  0.00000000E+00  0.00000000E+00
  0.00000000E+00  0.00000000E+00  0.00000000E+00
  0.00000000E+00  0.00000000E+00  0.00000000E+00
  0.00000000E+00  0.00000000E+00  0.00000000E+00
  0.00000000E+00  0.00000000E+00  0.00000000E+00
  0.00000000E+00  0.00000000E+00  0.00000000E+00
  0.00000000E+00  0.00000000E+00  0.00000000E+00
  0.00000000E+00  0.00000000E+00  0.00000000E+00
  0.00000000E+00  0.00000000E+00  0.00000000E+00
  0.00000000E+00  0.00000000E+00  0.00000000E+00
  0.00000000E+00  0.00000000E+00  0.00000000E+00
  0.00000000E+00  0.00000000E+00  0.00000000E+00
  0.00000000E+00  0.00000000E+00  0.00000000E+00
  0.00000000E+00  0.00000000E+00  0.00000000E+00
  0.00000000E+00  0.00000000E+00  0.00000000E+00
  0.00000000E+00  0.00000000E+00  0.00000000E+00
