generated by phonopy                    
   1.0000000000000000     
     8.3871423140825687    0.0000000000000000    0.0000000000000000
     0.0000000000000000    8.3871423140825687    0.0000000000000000
     0.0000000000000000    0.0000000000000000    8.3871423140825687
   Mg   O 
    32    31
Direct
 -0.0000000000000000  0.0006641775982706  0.0000000000000000
  0.5000000000000000  0.0016119696014483  0.0000000000000000
 -0.0000000000000000  0.4993358224017294  0.0000000000000000
  0.5000000000000000  0.4983880303985517  0.0000000000000000
 -0.0000000000000000  0.0016119696014483  0.5000000000000000
  0.5000000000000000  0.0118041745190133  0.5000000000000000
 -0.0000000000000000  0.4983880303985517  0.5000000000000000
  0.5000000000000000  0.4881958254809867  0.5000000000000000
 -0.0000000000000000  0.2500000000000000  0.2493358224017294
  0.5000000000000000  0.2500000000000000  0.2483880303985517
 -0.0000000000000000  0.7500000000000000  0.2483880303985517
  0.5000000000000000  0.7500000000000000  0.2381958254809867
 -0.0000000000000000  0.2500000000000000  0.7506641775982705
  0.5000000000000000  0.2500000000000000  0.7516119696014484
 -0.0000000000000000  0.7500000000000000  0.7516119696014484
  0.5000000000000000  0.7500000000000000  0.7618041745190133
  0.2499450747264712  0.0000549252735288  0.2499450747264712
  0.7500549252735289  0.0000549252735288  0.2499450747264712
  0.2499450747264712  0.4999450747264712  0.2499450747264712
  0.7500549252735289  0.4999450747264712  0.2499450747264712
  0.2499450747264712  0.0000549252735288  0.7500549252735289
  0.7500549252735289  0.0000549252735288  0.7500549252735289
  0.2499450747264712  0.4999450747264712  0.7500549252735289
  0.7500549252735289  0.4999450747264712  0.7500549252735289
  0.2493358224017294  0.2500000000000000  0.0000000000000000
  0.7506641775982705  0.2500000000000000  0.0000000000000000
  0.2483880303985517  0.7500000000000000  0.0000000000000000
  0.7516119696014484  0.7500000000000000  0.0000000000000000
  0.2483880303985517  0.2500000000000000  0.5000000000000000
  0.7516119696014484  0.2500000000000000  0.5000000000000000
  0.2381958254809867  0.7500000000000000  0.5000000000000000
  0.7618041745190133  0.7500000000000000  0.5000000000000000
  0.2506674962966218  0.9993325037033781  0.0000000000000000
  0.7493325037033781  0.9993325037033781  0.0000000000000000
  0.2506674962966218  0.5006674962966219  0.0000000000000000
  0.7493325037033781  0.5006674962966219  0.0000000000000000
  0.2523380579615331  0.9976619420384669  0.5000000000000000
  0.7476619420384669  0.9976619420384669  0.5000000000000000
  0.2523380579615331  0.5023380579615331  0.5000000000000000
  0.7476619420384669  0.5023380579615331  0.5000000000000000
  0.2506674962966218  0.2500000000000000  0.2506674962966218
  0.7493325037033781  0.2500000000000000  0.2506674962966218
  0.2523380579615331  0.7500000000000000  0.2523380579615331
  0.7476619420384669  0.7500000000000000  0.2523380579615331
  0.2506674962966218  0.2500000000000000  0.7493325037033781
  0.7493325037033781  0.2500000000000000  0.7493325037033781
  0.2523380579615331  0.7500000000000000  0.7476619420384669
  0.7476619420384669  0.7500000000000000  0.7476619420384669
 -0.0000000000000000  0.9993325037033781  0.2506674962966218
  0.5000000000000000  0.9976619420384669  0.2523380579615331
 -0.0000000000000000  0.5006674962966219  0.2506674962966218
  0.5000000000000000  0.5023380579615331  0.2523380579615331
 -0.0000000000000000  0.9993325037033781  0.7493325037033781
  0.5000000000000000  0.9976619420384669  0.7476619420384669
 -0.0000000000000000  0.5006674962966219  0.7493325037033781
  0.5000000000000000  0.5023380579615331  0.7476619420384669
 -0.0000000000000000  0.2500000000000000  0.0000000000000000
  0.5000000000000000  0.2500000000000000  0.0000000000000000
 -0.0000000000000000  0.7500000000000000  0.0000000000000000
  0.5000000000000000  0.7500000000000000  0.0000000000000000
 -0.0000000000000000  0.2500000000000000  0.5000000000000000
  0.5000000000000000  0.2500000000000000  0.5000000000000000
 -0.0000000000000000  0.7500000000000000  0.5000000000000000

  0.00000000E+00  0.00000000E+00  0.00000000E+00
  0.00000000E+00  0.00000000E+00  0.00000000E+00
  0.00000000E+00  0.00000000E+00  0.00000000E+00
  0.00000000E+00  0.00000000E+00  0.00000000E+00
  0.00000000E+00  0.00000000E+00  0.00000000E+00
  0.00000000E+00  0.00000000E+00  0.00000000E+00
  0.00000000E+00  0.00000000E+00  0.00000000E+00
  0.00000000E+00  0.00000000E+00  0.00000000E+00
  0.00000000E+00  0.00000000E+00  0.00000000E+00
  0.00000000E+00  0.00000000E+00  0.00000000E+00
  0.00000000E+00  0.00000000E+00  0.00000000E+00
  0.00000000E+00  0.00000000E+00  0.00000000E+00
  0.00000000E+00  0.00000000E+00  0.00000000E+00
  0.00000000E+00  0.00000000E+00  0.00000000E+00
  0.00000000E+00  0.00000000E+00  0.00000000E+00
  0.00000000E+00  0.00000000E+00  0.00000000E+00
  0.00000000E+00  0.00000000E+00  0.00000000E+00
  0.00000000E+00  0.00000000E+00  0.00000000E+00
  0.00000000E+00  0.00000000E+00  0.00000000E+00
  0.00000000E+00  0.00000000E+00  0.00000000E+00
  0.00000000E+00  0.00000000E+00  0.00000000E+00
  0.00000000E+00  0.00000000E+00  0.00000000E+00
  0.00000000E+00  0.00000000E+00  0.00000000E+00
  0.00000000E+00  0.00000000E+00  0.00000000E+00
  0.00000000E+00  0.00000000E+00  0.00000000E+00
  0.00000000E+00  0.00000000E+00  0.00000000E+00
  0.00000000E+00  0.00000000E+00  0.00000000E+00
  0.00000000E+00  0.00000000E+00  0.00000000E+00
  0.00000000E+00  0.00000000E+00  0.00000000E+00
  0.00000000E+00  0.00000000E+00  0.00000000E+00
  0.00000000E+00  0.00000000E+00  0.00000000E+00
  0.00000000E+00  0.00000000E+00  0.00000000E+00
  0.00000000E+00  0.00000000E+00  0.00000000E+00
  0.00000000E+00  0.00000000E+00  0.00000000E+00
  0.00000000E+00  0.00000000E+00  0.00000000E+00
  0.00000000E+00  0.00000000E+00  0.00000000E+00
  0.00000000E+00  0.00000000E+00  0.00000000E+00
  0.00000000E+00  0.00000000E+00  0.00000000E+00
  0.00000000E+00  0.00000000E+00  0.00000000E+00
  0.00000000E+00  0.00000000E+00  0.00000000E+00
  0.00000000E+00  0.00000000E+00  0.00000000E+00
  0.00000000E+00  0.00000000E+00  0.00000000E+00
  0.00000000E+00  0.00000000E+00  0.00000000E+00
  0.00000000E+00  0.00000000E+00  0.00000000E+00
  0.00000000E+00  0.00000000E+00  0.00000000E+00
  0.00000000E+00  0.00000000E+00  0.00000000E+00
  0.00000000E+00  0.00000000E+00  0.00000000E+00
  0.00000000E+00  0.00000000E+00  0.00000000E+00
  0.00000000E+00  0.00000000E+00  0.00000000E+00
  0.00000000E+00  0.00000000E+00  0.00000000E+00
  0.00000000E+00  0.00000000E+00  0.00000000E+00
  0.00000000E+00  0.00000000E+00  0.00000000E+00
  0.00000000E+00  0.00000000E+00  0.00000000E+00
  0.00000000E+00  0.00000000E+00  0.00000000E+00
  0.00000000E+00  0.00000000E+00  0.00000000E+00
  0.00000000E+00  0.00000000E+00  0.00000000E+00
  0.00000000E+00  0.00000000E+00  0.00000000E+00
  0.00000000E+00  0.00000000E+00  0.00000000E+00
  0.00000000E+00  0.00000000E+00  0.00000000E+00
  0.00000000E+00  0.00000000E+00  0.00000000E+00
  0.00000000E+00  0.00000000E+00  0.00000000E+00
  0.00000000E+00  0.00000000E+00  0.00000000E+00
  0.00000000E+00  0.00000000E+00  0.00000000E+00
