generated by phonopy                    
   1.0000000000000000     
     8.3871423140825687    0.0000000000000000    0.0000000000000000
     0.0000000000000000    8.3871423140825687    0.0000000000000000
     0.0000000000000000    0.0000000000000000    8.3871423140825687
   Mg   O 
    31    32
Direct
 -0.0000000000000000 -0.0000000000000000  0.0000000000000000
  0.5000000000000000 -0.0000000000000000  0.0000000000000000
 -0.0000000000000000  0.5000000000000000  0.0000000000000000
  0.5000000000000000  0.5000000000000000  0.0000000000000000
 -0.0000000000000000 -0.0000000000000000  0.5000000000000000
  0.5000000000000000 -0.0000000000000000  0.5000000000000000
 -0.0000000000000000  0.5000000000000000  0.5000000000000000
 -0.0000000000000000  0.2516625858466163  0.2516625858466163
  0.5000000000000000  0.2569671185223698  0.2569671185223698
 -0.0000000000000000  0.7483374141533838  0.2516625858466163
  0.5000000000000000  0.7430328814776302  0.2569671185223698
 -0.0000000000000000  0.2516625858466163  0.7483374141533838
  0.5000000000000000  0.2569671185223698  0.7430328814776302
 -0.0000000000000000  0.7483374141533838  0.7483374141533838
  0.5000000000000000  0.7430328814776302  0.7430328814776302
  0.2516625858466163 -0.0000000000000000  0.2516625858466163
  0.7483374141533838 -0.0000000000000000  0.2516625858466163
  0.2569671185223698  0.5000000000000000  0.2569671185223698
  0.7430328814776302  0.5000000000000000  0.2569671185223698
  0.2516625858466163 -0.0000000000000000  0.7483374141533838
  0.7483374141533838 -0.0000000000000000  0.7483374141533838
  0.2569671185223698  0.5000000000000000  0.7430328814776302
  0.7430328814776302  0.5000000000000000  0.7430328814776302
  0.2516625858466163  0.2516625858466163  0.0000000000000000
  0.7483374141533838  0.2516625858466163  0.0000000000000000
  0.2516625858466163  0.7483374141533838  0.0000000000000000
  0.7483374141533838  0.7483374141533838  0.0000000000000000
  0.2569671185223698  0.2569671185223698  0.5000000000000000
  0.7430328814776302  0.2569671185223698  0.5000000000000000
  0.2569671185223698  0.7430328814776302  0.5000000000000000
  0.7430328814776302  0.7430328814776302  0.5000000000000000
  0.2517453724195151 -0.0000000000000000 -0.0000000000000000
  0.7482546275804850 -0.0000000000000000  0.0000000000000000
  0.2487269459887613  0.5000000000000000  0.0000000000000000
  0.7512730540112388  0.5000000000000000  0.0000000000000000
  0.2487269459887613 -0.0000000000000000  0.5000000000000000
  0.7512730540112388 -0.0000000000000000  0.5000000000000000
  0.2354933980253424  0.5000000000000000  0.5000000000000000
  0.7645066019746576  0.5000000000000000  0.5000000000000000
  0.2516759485773092  0.2516759485773092  0.2516759485773092
  0.7483240514226908  0.2516759485773092  0.2516759485773092
  0.2516759485773092  0.7483240514226907  0.2516759485773092
  0.7483240514226907  0.7483240514226907  0.2516759485773092
  0.2516759485773092  0.2516759485773092  0.7483240514226907
  0.7483240514226907  0.2516759485773092  0.7483240514226907
  0.2516759485773092  0.7483240514226907  0.7483240514226907
  0.7483240514226907  0.7483240514226907  0.7483240514226907
 -0.0000000000000000 -0.0000000000000000  0.2517453724195151
  0.5000000000000000 -0.0000000000000000  0.2487269459887613
 -0.0000000000000000  0.5000000000000000  0.2487269459887613
  0.5000000000000000  0.5000000000000000  0.2354933980253424
 -0.0000000000000000 -0.0000000000000000  0.7482546275804850
  0.5000000000000000 -0.0000000000000000  0.7512730540112388
 -0.0000000000000000  0.5000000000000000  0.7512730540112388
  0.5000000000000000  0.5000000000000000  0.7645066019746576
 -0.0000000000000000  0.2517453724195151  0.0000000000000000
  0.5000000000000000  0.2487269459887613  0.0000000000000000
 -0.0000000000000000  0.7482546275804850  0.0000000000000000
  0.5000000000000000  0.7512730540112388  0.0000000000000000
 -0.0000000000000000  0.2487269459887613  0.5000000000000000
  0.5000000000000000  0.2354933980253424  0.5000000000000000
 -0.0000000000000000  0.7512730540112388  0.5000000000000000
  0.5000000000000000  0.7645066019746576  0.5000000000000000

  0.00000000E+00  0.00000000E+00  0.00000000E+00
  0.00000000E+00  0.00000000E+00  0.00000000E+00
  0.00000000E+00  0.00000000E+00  0.00000000E+00
  0.00000000E+00  0.00000000E+00  0.00000000E+00
  0.00000000E+00  0.00000000E+00  0.00000000E+00
  0.00000000E+00  0.00000000E+00  0.00000000E+00
  0.00000000E+00  0.00000000E+00  0.00000000E+00
  0.00000000E+00  0.00000000E+00  0.00000000E+00
  0.00000000E+00  0.00000000E+00  0.00000000E+00
  0.00000000E+00  0.00000000E+00  0.00000000E+00
  0.00000000E+00  0.00000000E+00  0.00000000E+00
  0.00000000E+00  0.00000000E+00  0.00000000E+00
  0.00000000E+00  0.00000000E+00  0.00000000E+00
  0.00000000E+00  0.00000000E+00  0.00000000E+00
  0.00000000E+00  0.00000000E+00  0.00000000E+00
  0.00000000E+00  0.00000000E+00  0.00000000E+00
  0.00000000E+00  0.00000000E+00  0.00000000E+00
  0.00000000E+00  0.00000000E+00  0.00000000E+00
  0.00000000E+00  0.00000000E+00  0.00000000E+00
  0.00000000E+00  0.00000000E+00  0.00000000E+00
  0.00000000E+00  0.00000000E+00  0.00000000E+00
  0.00000000E+00  0.00000000E+00  0.00000000E+00
  0.00000000E+00  0.00000000E+00  0.00000000E+00
  0.00000000E+00  0.00000000E+00  0.00000000E+00
  0.00000000E+00  0.00000000E+00  0.00000000E+00
  0.00000000E+00  0.00000000E+00  0.00000000E+00
  0.00000000E+00  0.00000000E+00  0.00000000E+00
  0.00000000E+00  0.00000000E+00  0.00000000E+00
  0.00000000E+00  0.00000000E+00  0.00000000E+00
  0.00000000E+00  0.00000000E+00  0.00000000E+00
  0.00000000E+00  0.00000000E+00  0.00000000E+00
  0.00000000E+00  0.00000000E+00  0.00000000E+00
  0.00000000E+00  0.00000000E+00  0.00000000E+00
  0.00000000E+00  0.00000000E+00  0.00000000E+00
  0.00000000E+00  0.00000000E+00  0.00000000E+00
  0.00000000E+00  0.00000000E+00  0.00000000E+00
  0.00000000E+00  0.00000000E+00  0.00000000E+00
  0.00000000E+00  0.00000000E+00  0.00000000E+00
  0.00000000E+00  0.00000000E+00  0.00000000E+00
  0.00000000E+00  0.00000000E+00  0.00000000E+00
  0.00000000E+00  0.00000000E+00  0.00000000E+00
  0.00000000E+00  0.00000000E+00  0.00000000E+00
  0.00000000E+00  0.00000000E+00  0.00000000E+00
  0.00000000E+00  0.00000000E+00  0.00000000E+00
  0.00000000E+00  0.00000000E+00  0.00000000E+00
  0.00000000E+00  0.00000000E+00  0.00000000E+00
  0.00000000E+00  0.00000000E+00  0.00000000E+00
  0.00000000E+00  0.00000000E+00  0.00000000E+00
  0.00000000E+00  0.00000000E+00  0.00000000E+00
  0.00000000E+00  0.00000000E+00  0.00000000E+00
  0.00000000E+00  0.00000000E+00  0.00000000E+00
  0.00000000E+00  0.00000000E+00  0.00000000E+00
  0.00000000E+00  0.00000000E+00  0.00000000E+00
  0.00000000E+00  0.00000000E+00  0.00000000E+00
  0.00000000E+00  0.00000000E+00  0.00000000E+00
  0.00000000E+00  0.00000000E+00  0.00000000E+00
  0.00000000E+00  0.00000000E+00  0.00000000E+00
  0.00000000E+00  0.00000000E+00  0.00000000E+00
  0.00000000E+00  0.00000000E+00  0.00000000E+00
  0.00000000E+00  0.00000000E+00  0.00000000E+00
  0.00000000E+00  0.00000000E+00  0.00000000E+00
  0.00000000E+00  0.00000000E+00  0.00000000E+00
  0.00000000E+00  0.00000000E+00  0.00000000E+00
