generated by phonopy                    
   1.0000000000000000     
     8.3871423140825687    0.0000000000000000    0.0000000000000000
     0.0000000000000000    8.3871423140825687    0.0000000000000000
     0.0000000000000000    0.0000000000000000    8.3871423140825687
   Mg   O 
    33    31
Direct
  0.7499921512565185  0.4999892191846078  0.4999604594089466
  0.0004748483243880 -0.0000057009836928 -0.0000004107363654
  0.4995261269213633  0.0000059157616049  0.0000060600958618
  0.0078494671649038  0.4999919349725467  0.0000180346917408
  0.4921493613925850  0.5000094348961557 -0.0000320549859577
  0.0078489767360926  0.0000382349836406  0.4999993914766095
  0.4921485894613481 -0.0000408999084956  0.5000094545984007
  0.0188975427750159  0.5000720886417169  0.5000444141310613
  0.4810945806048003  0.4999400138328737  0.4999723750209430
 -0.0046802863233480  0.2546725107208870  0.2546707984537452
  0.5046569502567304  0.2546534275450924  0.2546547225515850
 -0.0046613086088001  0.7453469247221649  0.2546611280050737
  0.5046715806600003  0.7453325674306063  0.2546622412572073
 -0.0046622885859307  0.2546607256645794  0.7453491598333161
  0.5046610438380555  0.2546527663726772  0.7453426595354052
 -0.0046475922318343  0.7453553654665740  0.7453555032386202
  0.5046730190984686  0.7453368515498202  0.7453402198221721
  0.2500037196781367  0.0000013254707121  0.2495045611879423
  0.7500062116344560 -0.0000054902835769  0.2421174382590514
  0.2499752486218960  0.5000016151145334  0.2421229437536529
  0.7499624171231767  0.5000030839832504  0.2310818985094062
  0.2499969181959142 -0.0000008881719475  0.7505010770940601
  0.7499962289492191  0.0000023193367744  0.7578776046230037
  0.2500215396749563  0.4999992942874334  0.7578719667191111
  0.7500428604253196  0.5000095690691483  0.7688776148321903
  0.2500062885911311  0.2495024826521330  0.0000033389180216
  0.7500100687656611  0.2421218118231947 -0.0000103089991092
  0.2499950217366104  0.7504974525757964  0.0000019984883324
  0.7499923838049702  0.7578786112378624 -0.0000039417598929
  0.2499563861937981  0.2421269376801824  0.5000050637159763
  0.7499400936044905  0.2310951484077447  0.5000034425726442
  0.2500394889753526  0.7578738216098158  0.5000029810145467
  0.7500652153014850  0.7688918769111356  0.5000139893652330
  0.2499998358916610 -0.0000008105416685  0.0000002828584042
  0.7500012384182494 -0.0000016608129955 -0.0000072030786363
  0.2499984590452906  0.5000003269065173 -0.0000072305616798
  0.7500016952888983  0.5000019401426632  0.0000083129922451
  0.2499974106679220 -0.0000010391491567  0.5000056083054383
  0.7500013478292734 -0.0000017057721781  0.5000070282612968
  0.2500008551046793  0.5000019645630083  0.5000065945867730
  0.2499757147383141  0.2472193117886010  0.2472232241511230
  0.7500122144367406  0.2294598870594284  0.2294568147775794
  0.2500064319095045  0.7527843784205874  0.2472217554642776
  0.7500008518642791  0.7705194918575932  0.2294733500783932
  0.2499932244289004  0.2472190510607156  0.7527873286583948
  0.7500084944369961  0.2294884811489796  0.7705102776880264
  0.2500214767412557  0.7527788363298606  0.7527848809889672
  0.7499897671290484  0.7705243718476231  0.7705248545478145
  0.0027648465334552  0.0000119241009262  0.2472279932342612
  0.4972466094984248 -0.0000173688258111  0.2472363846365226
  0.0204621433001182  0.4999979810540120  0.2295142545313825
  0.4794473926672070  0.5000085109312560  0.2294203866434605
  0.0027524104422033  0.0000138382556891  0.7527708385629396
  0.4972397251823705 -0.0000124818952931  0.7527812823817644
  0.0205363092072415  0.4999908343755639  0.7705593786918089
  0.4795455379673502  0.5000091788008316  0.7704712845676970
  0.0027676866210238  0.2472213775029520  0.0000064988214761
  0.4972521858874279  0.2472381400088533 -0.0000138041493420
  0.0027489169945201  0.7527612496591444  0.0000083308075539
  0.4972347492352970  0.7527805187971008 -0.0000087595391319
  0.0204248219093635  0.2295521372059567  0.5000100616818005
  0.4794201036396046  0.2294017453615800  0.5000145024896749
  0.0205734496927386  0.7705922644106954  0.5000036444668262
  0.4795712392737091  0.7704469728494107  0.5000160177603504

  0.00000000E+00  0.00000000E+00  0.00000000E+00
  0.00000000E+00  0.00000000E+00  0.00000000E+00
  0.00000000E+00  0.00000000E+00  0.00000000E+00
  0.00000000E+00  0.00000000E+00  0.00000000E+00
  0.00000000E+00  0.00000000E+00  0.00000000E+00
  0.00000000E+00  0.00000000E+00  0.00000000E+00
  0.00000000E+00  0.00000000E+00  0.00000000E+00
  0.00000000E+00  0.00000000E+00  0.00000000E+00
  0.00000000E+00  0.00000000E+00  0.00000000E+00
  0.00000000E+00  0.00000000E+00  0.00000000E+00
  0.00000000E+00  0.00000000E+00  0.00000000E+00
  0.00000000E+00  0.00000000E+00  0.00000000E+00
  0.00000000E+00  0.00000000E+00  0.00000000E+00
  0.00000000E+00  0.00000000E+00  0.00000000E+00
  0.00000000E+00  0.00000000E+00  0.00000000E+00
  0.00000000E+00  0.00000000E+00  0.00000000E+00
  0.00000000E+00  0.00000000E+00  0.00000000E+00
  0.00000000E+00  0.00000000E+00  0.00000000E+00
  0.00000000E+00  0.00000000E+00  0.00000000E+00
  0.00000000E+00  0.00000000E+00  0.00000000E+00
  0.00000000E+00  0.00000000E+00  0.00000000E+00
  0.00000000E+00  0.00000000E+00  0.00000000E+00
  0.00000000E+00  0.00000000E+00  0.00000000E+00
  0.00000000E+00  0.00000000E+00  0.00000000E+00
  0.00000000E+00  0.00000000E+00  0.00000000E+00
  0.00000000E+00  0.00000000E+00  0.00000000E+00
  0.00000000E+00  0.00000000E+00  0.00000000E+00
  0.00000000E+00  0.00000000E+00  0.00000000E+00
  0.00000000E+00  0.00000000E+00  0.00000000E+00
  0.00000000E+00  0.00000000E+00  0.00000000E+00
  0.00000000E+00  0.00000000E+00  0.00000000E+00
  0.00000000E+00  0.00000000E+00  0.00000000E+00
  0.00000000E+00  0.00000000E+00  0.00000000E+00
  0.00000000E+00  0.00000000E+00  0.00000000E+00
  0.00000000E+00  0.00000000E+00  0.00000000E+00
  0.00000000E+00  0.00000000E+00  0.00000000E+00
  0.00000000E+00  0.00000000E+00  0.00000000E+00
  0.00000000E+00  0.00000000E+00  0.00000000E+00
  0.00000000E+00  0.00000000E+00  0.00000000E+00
  0.00000000E+00  0.00000000E+00  0.00000000E+00
  0.00000000E+00  0.00000000E+00  0.00000000E+00
  0.00000000E+00  0.00000000E+00  0.00000000E+00
  0.00000000E+00  0.00000000E+00  0.00000000E+00
  0.00000000E+00  0.00000000E+00  0.00000000E+00
  0.00000000E+00  0.00000000E+00  0.00000000E+00
  0.00000000E+00  0.00000000E+00  0.00000000E+00
  0.00000000E+00  0.00000000E+00  0.00000000E+00
  0.00000000E+00  0.00000000E+00  0.00000000E+00
  0.00000000E+00  0.00000000E+00  0.00000000E+00
  0.00000000E+00  0.00000000E+00  0.00000000E+00
  0.00000000E+00  0.00000000E+00  0.00000000E+00
  0.00000000E+00  0.00000000E+00  0.00000000E+00
  0.00000000E+00  0.00000000E+00  0.00000000E+00
  0.00000000E+00  0.00000000E+00  0.00000000E+00
  0.00000000E+00  0.00000000E+00  0.00000000E+00
  0.00000000E+00  0.00000000E+00  0.00000000E+00
  0.00000000E+00  0.00000000E+00  0.00000000E+00
  0.00000000E+00  0.00000000E+00  0.00000000E+00
  0.00000000E+00  0.00000000E+00  0.00000000E+00
  0.00000000E+00  0.00000000E+00  0.00000000E+00
  0.00000000E+00  0.00000000E+00  0.00000000E+00
  0.00000000E+00  0.00000000E+00  0.00000000E+00
  0.00000000E+00  0.00000000E+00  0.00000000E+00
  0.00000000E+00  0.00000000E+00  0.00000000E+00
