generated by phonopy                    
   1.0000000000000000     
     8.3871423140825687    0.0000000000000000    0.0000000000000000
     0.0000000000000000    8.3871423140825687    0.0000000000000000
     0.0000000000000000    0.0000000000000000    8.3871423140825687
   Mg   O 
    33    32
Direct
  0.3750000000000000  0.3750000000000000  0.3750000000000000
  0.9997379174855492  0.9997379174855492  0.9997379174855492
  0.5005250862665513  0.9943574129528429  0.9943574129528429
  0.9943574129528429  0.5005250862665513  0.9943574129528429
  0.5010344259578381  0.5010344259578381  0.9981038045990096
  0.9943574129528429  0.9943574129528429  0.5005250862665513
  0.5010344259578381  0.9981038045990096  0.5010344259578381
  0.9981038045990096  0.5010344259578381  0.5010344259578381
  0.5303900460071824  0.5303900460071824  0.5303900460071824
  0.9981038045990096  0.2489655740421620  0.2489655740421620
  0.5303900460071824  0.2196099539928176  0.2196099539928176
  0.9943574129528429  0.7556425870471571  0.2494749137334486
  0.5010344259578381  0.7518961954009904  0.2489655740421620
  0.9943574129528429  0.2494749137334486  0.7556425870471571
  0.5010344259578381  0.2489655740421620  0.7518961954009904
  0.9997379174855492  0.7502620825144508  0.7502620825144508
  0.5005250862665513  0.7556425870471571  0.7556425870471571
  0.2489655740421620  0.9981038045990096  0.2489655740421620
  0.7556425870471571  0.9943574129528429  0.2494749137334486
  0.2196099539928176  0.5303900460071824  0.2196099539928176
  0.7518961954009904  0.5010344259578381  0.2489655740421620
  0.2494749137334486  0.9943574129528429  0.7556425870471571
  0.7502620825144508  0.9997379174855492  0.7502620825144508
  0.2489655740421620  0.5010344259578381  0.7518961954009904
  0.7556425870471571  0.5005250862665513  0.7556425870471571
  0.2489655740421620  0.2489655740421620  0.9981038045990096
  0.7556425870471571  0.2494749137334486  0.9943574129528429
  0.2494749137334486  0.7556425870471571  0.9943574129528429
  0.7502620825144508  0.7502620825144508  0.9997379174855492
  0.2196099539928176  0.2196099539928176  0.5303900460071824
  0.7518961954009904  0.2489655740421620  0.5010344259578381
  0.2489655740421620  0.7518961954009904  0.5010344259578381
  0.7556425870471571  0.7556425870471571  0.5005250862665513
  0.2506728512981812  0.0006319123613628  0.0006319123613628
  0.7497015396821793  0.0002984603178206  0.0002984603178206
  0.2486715555477093  0.5013284444522906  0.9948616705431591
  0.7493680876386372  0.4993271487018188  0.0006319123613628
  0.2486715555477093  0.9948616705431591  0.5013284444522906
  0.7493680876386372  0.0006319123613628  0.4993271487018188
  0.2488466595619530  0.5011533404380469  0.5011533404380469
  0.7551383294568409  0.5013284444522906  0.5013284444522906
  0.2488466595619530  0.2488466595619530  0.2488466595619530
  0.7551383294568409  0.2486715555477093  0.2486715555477093
  0.2486715555477093  0.7551383294568409  0.2486715555477093
  0.7493680876386372  0.7493680876386372  0.2506728512981812
  0.2486715555477093  0.2486715555477093  0.7551383294568409
  0.7493680876386372  0.2506728512981812  0.7493680876386372
  0.2506728512981812  0.7493680876386372  0.7493680876386372
  0.7497015396821793  0.7497015396821793  0.7497015396821793
  0.0006319123613628  0.0006319123613628  0.2506728512981812
  0.5013284444522906  0.9948616705431591  0.2486715555477093
  0.9948616705431591  0.5013284444522906  0.2486715555477093
  0.5011533404380469  0.5011533404380469  0.2488466595619530
  0.0002984603178206  0.0002984603178206  0.7497015396821793
  0.4993271487018188  0.0006319123613628  0.7493680876386372
  0.0006319123613628  0.4993271487018188  0.7493680876386372
  0.5013284444522906  0.5013284444522906  0.7551383294568409
  0.0006319123613628  0.2506728512981812  0.0006319123613628
  0.5013284444522906  0.2486715555477093  0.9948616705431591
  0.0002984603178206  0.7497015396821793  0.0002984603178206
  0.4993271487018188  0.7493680876386372  0.0006319123613628
  0.9948616705431591  0.2486715555477093  0.5013284444522906
  0.5011533404380469  0.2488466595619530  0.5011533404380469
  0.0006319123613628  0.7493680876386372  0.4993271487018188
  0.5013284444522906  0.7551383294568409  0.5013284444522906

  0.00000000E+00  0.00000000E+00  0.00000000E+00
  0.00000000E+00  0.00000000E+00  0.00000000E+00
  0.00000000E+00  0.00000000E+00  0.00000000E+00
  0.00000000E+00  0.00000000E+00  0.00000000E+00
  0.00000000E+00  0.00000000E+00  0.00000000E+00
  0.00000000E+00  0.00000000E+00  0.00000000E+00
  0.00000000E+00  0.00000000E+00  0.00000000E+00
  0.00000000E+00  0.00000000E+00  0.00000000E+00
  0.00000000E+00  0.00000000E+00  0.00000000E+00
  0.00000000E+00  0.00000000E+00  0.00000000E+00
  0.00000000E+00  0.00000000E+00  0.00000000E+00
  0.00000000E+00  0.00000000E+00  0.00000000E+00
  0.00000000E+00  0.00000000E+00  0.00000000E+00
  0.00000000E+00  0.00000000E+00  0.00000000E+00
  0.00000000E+00  0.00000000E+00  0.00000000E+00
  0.00000000E+00  0.00000000E+00  0.00000000E+00
  0.00000000E+00  0.00000000E+00  0.00000000E+00
  0.00000000E+00  0.00000000E+00  0.00000000E+00
  0.00000000E+00  0.00000000E+00  0.00000000E+00
  0.00000000E+00  0.00000000E+00  0.00000000E+00
  0.00000000E+00  0.00000000E+00  0.00000000E+00
  0.00000000E+00  0.00000000E+00  0.00000000E+00
  0.00000000E+00  0.00000000E+00  0.00000000E+00
  0.00000000E+00  0.00000000E+00  0.00000000E+00
  0.00000000E+00  0.00000000E+00  0.00000000E+00
  0.00000000E+00  0.00000000E+00  0.00000000E+00
  0.00000000E+00  0.00000000E+00  0.00000000E+00
  0.00000000E+00  0.00000000E+00  0.00000000E+00
  0.00000000E+00  0.00000000E+00  0.00000000E+00
  0.00000000E+00  0.00000000E+00  0.00000000E+00
  0.00000000E+00  0.00000000E+00  0.00000000E+00
  0.00000000E+00  0.00000000E+00  0.00000000E+00
  0.00000000E+00  0.00000000E+00  0.00000000E+00
  0.00000000E+00  0.00000000E+00  0.00000000E+00
  0.00000000E+00  0.00000000E+00  0.00000000E+00
  0.00000000E+00  0.00000000E+00  0.00000000E+00
  0.00000000E+00  0.00000000E+00  0.00000000E+00
  0.00000000E+00  0.00000000E+00  0.00000000E+00
  0.00000000E+00  0.00000000E+00  0.00000000E+00
  0.00000000E+00  0.00000000E+00  0.00000000E+00
  0.00000000E+00  0.00000000E+00  0.00000000E+00
  0.00000000E+00  0.00000000E+00  0.00000000E+00
  0.00000000E+00  0.00000000E+00  0.00000000E+00
  0.00000000E+00  0.00000000E+00  0.00000000E+00
  0.00000000E+00  0.00000000E+00  0.00000000E+00
  0.00000000E+00  0.00000000E+00  0.00000000E+00
  0.00000000E+00  0.00000000E+00  0.00000000E+00
  0.00000000E+00  0.00000000E+00  0.00000000E+00
  0.00000000E+00  0.00000000E+00  0.00000000E+00
  0.00000000E+00  0.00000000E+00  0.00000000E+00
  0.00000000E+00  0.00000000E+00  0.00000000E+00
  0.00000000E+00  0.00000000E+00  0.00000000E+00
  0.00000000E+00  0.00000000E+00  0.00000000E+00
  0.00000000E+00  0.00000000E+00  0.00000000E+00
  0.00000000E+00  0.00000000E+00  0.00000000E+00
  0.00000000E+00  0.00000000E+00  0.00000000E+00
  0.00000000E+00  0.00000000E+00  0.00000000E+00
  0.00000000E+00  0.00000000E+00  0.00000000E+00
  0.00000000E+00  0.00000000E+00  0.00000000E+00
  0.00000000E+00  0.00000000E+00  0.00000000E+00
  0.00000000E+00  0.00000000E+00  0.00000000E+00
  0.00000000E+00  0.00000000E+00  0.00000000E+00
  0.00000000E+00  0.00000000E+00  0.00000000E+00
  0.00000000E+00  0.00000000E+00  0.00000000E+00
  0.00000000E+00  0.00000000E+00  0.00000000E+00
