generated by phonopy                    
   1.0000000000000000     
     8.3871423140825687    0.0000000000000000    0.0000000000000000
     0.0000000000000000    8.3871423140825687    0.0000000000000000
     0.0000000000000000    0.0000000000000000    8.3871423140825687
   Mg   O 
    32    33
Direct
  0.0002587132634924  0.9983421546534670  0.9984532440521201
  0.5034851147732402  0.9979021973667980  0.9978309290517969
  0.9979634003813164  0.4986025079845931  0.9993560756070174
  0.5058313457267662  0.4977714002239134  0.9964290844811207
  0.9979237827386221  0.9993085292084701  0.4986991323782086
  0.5058042492204484  0.9964658604787440  0.4976639987081393
  0.9835350361258183  0.4984564022935904  0.4987695695630567
  0.5207280967894150  0.4982079268010453  0.4978279714849519
  0.0016155363279916  0.2479506940784489  0.2479582045982774
  0.5044105526644673  0.2460729591220860  0.2458340088726474
  0.0005316213643383  0.7490394373864324  0.2477206417455594
  0.5035300702815309  0.7487088234678776  0.2470057609354437
  1.0002520441234788  0.2477046203541236  0.7492606272163399
  0.5032745019706327  0.2472162752939538  0.7487102871557807
  0.9996148666302986  0.7500036776527349  0.7502155928915898
  0.5019816399615314  0.7483372575239139  0.7483206171980443
  0.2525289138816733  0.9957215687995612  0.2446489124328389
  0.7519609836445831  0.9980288793121157  0.2469770602331345
  0.2510612936291751  0.5027563086123223  0.2246881719792856
  0.7542767961142349  0.4981233527281547  0.2455562778577811
  0.2514767387272066  0.9996181976590751  0.7517498025614081
  0.7515681509830474  0.9982805674557182  0.7494104988545259
  0.2523576757779247  0.4944567683802835  0.7705371352879006
  0.7499029328650024  0.4982734327548707  0.7507823565916893
  0.2524264238356708  0.2447430536143524  0.9956379380897125
  0.7518655773909735  0.2469852956555074  0.9980328322960449
  0.2515943865746552  0.7516224268802657  0.9997027142386806
  0.7516804059295946  0.7493921651588561  0.9982903344125011
  0.2504567918699392  0.2244277150820725  0.5030201791500846
  0.7542797836808317  0.2456646584257453  0.4980996557830319
  0.2528483062395323  0.7708060588740125  0.4942657116308098
  0.7498997695699287  0.7507084873441193  0.4982784717480312
  0.2517451308570275  0.9982320804517438  0.9982761078528424
  0.7519152233841437  0.9982462433707961  0.9982567571029211
  0.2518707906186634  0.4980704620047753  0.9977455702119234
  0.7519710649422028  0.4981930772625926  0.9982910499647270
  0.2518380053150899  0.9978275756989509  0.4980428324132383
  0.7519222802471821  0.9983109112251676  0.4982024568908169
  0.2225292724202891  0.5487790101027330  0.5479409228025145
  0.7520664367046985  0.4981347778742872  0.4981096908255653
  0.2515176536455340  0.2450344453465094  0.2448427449170650
  0.7530450399319256  0.2486834648287531  0.2487605599103489
  0.2520489116334221  0.7462994379563962  0.2497587626006373
  0.7520533253315071  0.7474598514814078  0.2488931574316681
  0.2516620542786296  0.2497619735202881  0.7464057861552795
  0.7517274002792115  0.2488142521343419  0.7473627397321652
  0.2517040705633978  0.7507858921855612  0.7508378456583333
  0.7508455170380262  0.7477804916741145  0.7477285645919332
  0.0029576592438172  0.9983269341688802  0.2493663786292321
  0.5014952232569913  0.9974719369008299  0.2485462739660261
  0.0049217303067644  0.4984651317715524  0.2510104334812522
  0.5047646986540399  0.4974988628464801  0.2461054843823734
  0.0022486794662942  0.9988557855995814  0.7477971581510238
  0.5007805843538428  0.9980476714085217  0.7469739116587694
  0.9991707806310824  0.4987305228350606  0.7499698529232247
  0.4991914256417589  0.4976868180720960  0.7452399003827455
  0.0027614742424798  0.2491342564273621  0.9984653394806998
  0.5014311514075854  0.2485259012815548  0.9973085044185831
  0.0023563367156571  0.7477539216405326  0.9990346859622563
  0.5009664280419647  0.7472145624177393  0.9979054033619993
  0.0046342279103881  0.2508364103683198  0.4986115534125691
  0.5044139176893444  0.2465177881989129  0.4972930793221808
 -0.0005419029065479  0.7496717703253036  0.4988965822505810
  0.4994054285280899  0.7454111021957677  0.4975481740682637
  0.2826544765680901  0.4447370157958943  0.4457379359987172

  0.00000000E+00  0.00000000E+00  0.00000000E+00
  0.00000000E+00  0.00000000E+00  0.00000000E+00
  0.00000000E+00  0.00000000E+00  0.00000000E+00
  0.00000000E+00  0.00000000E+00  0.00000000E+00
  0.00000000E+00  0.00000000E+00  0.00000000E+00
  0.00000000E+00  0.00000000E+00  0.00000000E+00
  0.00000000E+00  0.00000000E+00  0.00000000E+00
  0.00000000E+00  0.00000000E+00  0.00000000E+00
  0.00000000E+00  0.00000000E+00  0.00000000E+00
  0.00000000E+00  0.00000000E+00  0.00000000E+00
  0.00000000E+00  0.00000000E+00  0.00000000E+00
  0.00000000E+00  0.00000000E+00  0.00000000E+00
  0.00000000E+00  0.00000000E+00  0.00000000E+00
  0.00000000E+00  0.00000000E+00  0.00000000E+00
  0.00000000E+00  0.00000000E+00  0.00000000E+00
  0.00000000E+00  0.00000000E+00  0.00000000E+00
  0.00000000E+00  0.00000000E+00  0.00000000E+00
  0.00000000E+00  0.00000000E+00  0.00000000E+00
  0.00000000E+00  0.00000000E+00  0.00000000E+00
  0.00000000E+00  0.00000000E+00  0.00000000E+00
  0.00000000E+00  0.00000000E+00  0.00000000E+00
  0.00000000E+00  0.00000000E+00  0.00000000E+00
  0.00000000E+00  0.00000000E+00  0.00000000E+00
  0.00000000E+00  0.00000000E+00  0.00000000E+00
  0.00000000E+00  0.00000000E+00  0.00000000E+00
  0.00000000E+00  0.00000000E+00  0.00000000E+00
  0.00000000E+00  0.00000000E+00  0.00000000E+00
  0.00000000E+00  0.00000000E+00  0.00000000E+00
  0.00000000E+00  0.00000000E+00  0.00000000E+00
  0.00000000E+00  0.00000000E+00  0.00000000E+00
  0.00000000E+00  0.00000000E+00  0.00000000E+00
  0.00000000E+00  0.00000000E+00  0.00000000E+00
  0.00000000E+00  0.00000000E+00  0.00000000E+00
  0.00000000E+00  0.00000000E+00  0.00000000E+00
  0.00000000E+00  0.00000000E+00  0.00000000E+00
  0.00000000E+00  0.00000000E+00  0.00000000E+00
  0.00000000E+00  0.00000000E+00  0.00000000E+00
  0.00000000E+00  0.00000000E+00  0.00000000E+00
  0.00000000E+00  0.00000000E+00  0.00000000E+00
  0.00000000E+00  0.00000000E+00  0.00000000E+00
  0.00000000E+00  0.00000000E+00  0.00000000E+00
  0.00000000E+00  0.00000000E+00  0.00000000E+00
  0.00000000E+00  0.00000000E+00  0.00000000E+00
  0.00000000E+00  0.00000000E+00  0.00000000E+00
  0.00000000E+00  0.00000000E+00  0.00000000E+00
  0.00000000E+00  0.00000000E+00  0.00000000E+00
  0.00000000E+00  0.00000000E+00  0.00000000E+00
  0.00000000E+00  0.00000000E+00  0.00000000E+00
  0.00000000E+00  0.00000000E+00  0.00000000E+00
  0.00000000E+00  0.00000000E+00  0.00000000E+00
  0.00000000E+00  0.00000000E+00  0.00000000E+00
  0.00000000E+00  0.00000000E+00  0.00000000E+00
  0.00000000E+00  0.00000000E+00  0.00000000E+00
  0.00000000E+00  0.00000000E+00  0.00000000E+00
  0.00000000E+00  0.00000000E+00  0.00000000E+00
  0.00000000E+00  0.00000000E+00  0.00000000E+00
  0.00000000E+00  0.00000000E+00  0.00000000E+00
  0.00000000E+00  0.00000000E+00  0.00000000E+00
  0.00000000E+00  0.00000000E+00  0.00000000E+00
  0.00000000E+00  0.00000000E+00  0.00000000E+00
  0.00000000E+00  0.00000000E+00  0.00000000E+00
  0.00000000E+00  0.00000000E+00  0.00000000E+00
  0.00000000E+00  0.00000000E+00  0.00000000E+00
  0.00000000E+00  0.00000000E+00  0.00000000E+00
  0.00000000E+00  0.00000000E+00  0.00000000E+00
