generated by phonopy                    
   1.0000000000000000     
     8.3871423140825687    0.0000000000000000    0.0000000000000000
     0.0000000000000000    8.3871423140825687    0.0000000000000000
     0.0000000000000000    0.0000000000000000    8.3871423140825687
   Mg   O 
    33    31
Direct
  0.7500004146569613  0.4999974009950325  0.5000022194192684
  0.0017942278983490  1.0000001604077400  0.0000001744644356
  0.4982055354660856  0.9999998747174683  0.9999998018841109
  0.0054215214620129  0.5000001609988609  0.0000004741858811
  0.4945788377093983  0.5000001414040119  1.0000000433109710
  0.0054213014702999  0.0000001181963748  0.4999999876310182
  0.4945783035115793  0.9999999428979386  0.4999999170099224
  0.0313270535109810  0.5000006657739624  0.4999999550942136
  0.4686731221931573  0.5000009345952907  0.5000001111855430
  0.0002629248883757  0.2497373019042078  0.2497376604119742
  0.4997364170913480  0.2497366271857291  0.2497375057571450
  0.0002634160884075  0.7502630928424429  0.2497369320219594
  0.4997367295284618  0.7502627618243271  0.2497369401293016
  0.0002626641057406  0.2497370822182952  0.7502628886501785
  0.4997370953190730  0.2497368727996530  0.7502628570043571
  0.0002633604970979  0.7502627672858472  0.7502623333204932
  0.4997372078333325  0.7502630569109210  0.7502625332037822
  0.2499996826387509 -0.0000002135556452  0.2482058920953274
  0.7500000404729532  0.9999998477095201  0.2445791364770431
  0.2499997736579681  0.5000000641679944  0.2445787261756207
  0.7500000688193426  0.5000005768320972  0.2186749010350348
  0.2499999796043086 -0.0000000504164558  0.7517937977264448
  0.7499999901413975  1.0000000617408924  0.7554205091078263
  0.2500001431836145  0.4999999464980531  0.7554209038622327
  0.7500001644985300  0.5000004229979406  0.7813280411913645
  0.2499998418691747  0.2482055540657383  0.0000001815368333
  0.7499999123364856  0.2445791549372717  0.0000002550369029
  0.2500000699071344  0.7517938433681751  0.9999996522950027
  0.7500002004937513  0.7554212511868384  1.0000000838400123
  0.2499998592125217  0.2445791320453820  0.5000000481616783
  0.7499998973906192  0.2186733754441067  0.4999999595231019
  0.2499998659737291  0.7554217842472132  0.4999998901555858
  0.7500004153536696  0.7813269082530525  0.4999998322995591
  0.2499988860528718  0.9999994009644029 -0.0000006151136943
  0.7500004154269434  0.0000010759354004  0.0000002862033275
  0.2499998747427844  0.5000000840542494  0.9999986497751571
  0.7500004995297886  0.4999999505191152  0.0000002175337008
  0.2499999513585829  0.0000013591751195  0.4999999321077893
  0.7500007035362700  0.9999962237672175  0.4999999452344632
  0.2500007234799051  0.4999997256072366  0.5000019466412603
  0.2499999988563741  0.2513018513329296  0.2513001517624429
  0.7499982037794246  0.2526831927789419  0.2526845481424523
  0.2500005396080835  0.7486960032590706  0.2512995184566009
  0.7500003001689746  0.7473190723500728  0.2526811561766328
  0.2499991786879999  0.2513025020015691  0.7487002473936549
  0.7499993700536871  0.2526823223854486  0.7473166193415383
  0.2500014404231796  0.7486980408177157  0.7486960736120515
  0.7500014087594954  0.7473162942167847  0.7473157572761355
  0.9986990321296474  1.0000007836900273  0.2513042264127422
  0.5012986759428145 -0.0000010367631740  0.2513027670368577
  0.9973182617361694  0.5000011353550873  0.2526825548707007
  0.5026821761625850  0.5000008421070078  0.2526835206147504
  0.9986985741271394  1.0000012790372483  0.7486968660129253
  0.5013008442121694  1.0000008901682698  0.7486967089258696
  0.9973159478544351  0.4999989466677548  0.7473166088791835
  0.5026845219717818  0.4999999077949941  0.7473166452132811
  0.9986979326170750  0.2513029551284702  0.0000001287537956
  0.5013025722380683  0.2513016304349103  0.0000006248057579
  0.9986984686063911  0.7486960295163607  0.0000015397495343
  0.5013029697151448  0.7486966138186815  0.9999990896005404
  0.9973155124375602  0.2526833402839485  0.4999996764103938
  0.5026828086492227  0.2526822869703721  0.5000006195004787
  0.9973172241056709  0.7473177854620103  0.4999995890273225
  0.5026829442451476  0.7473188886824499  0.5000002544382203

  0.00000000E+00  0.00000000E+00  0.00000000E+00
  0.00000000E+00  0.00000000E+00  0.00000000E+00
  0.00000000E+00  0.00000000E+00  0.00000000E+00
  0.00000000E+00  0.00000000E+00  0.00000000E+00
  0.00000000E+00  0.00000000E+00  0.00000000E+00
  0.00000000E+00  0.00000000E+00  0.00000000E+00
  0.00000000E+00  0.00000000E+00  0.00000000E+00
  0.00000000E+00  0.00000000E+00  0.00000000E+00
  0.00000000E+00  0.00000000E+00  0.00000000E+00
  0.00000000E+00  0.00000000E+00  0.00000000E+00
  0.00000000E+00  0.00000000E+00  0.00000000E+00
  0.00000000E+00  0.00000000E+00  0.00000000E+00
  0.00000000E+00  0.00000000E+00  0.00000000E+00
  0.00000000E+00  0.00000000E+00  0.00000000E+00
  0.00000000E+00  0.00000000E+00  0.00000000E+00
  0.00000000E+00  0.00000000E+00  0.00000000E+00
  0.00000000E+00  0.00000000E+00  0.00000000E+00
  0.00000000E+00  0.00000000E+00  0.00000000E+00
  0.00000000E+00  0.00000000E+00  0.00000000E+00
  0.00000000E+00  0.00000000E+00  0.00000000E+00
  0.00000000E+00  0.00000000E+00  0.00000000E+00
  0.00000000E+00  0.00000000E+00  0.00000000E+00
  0.00000000E+00  0.00000000E+00  0.00000000E+00
  0.00000000E+00  0.00000000E+00  0.00000000E+00
  0.00000000E+00  0.00000000E+00  0.00000000E+00
  0.00000000E+00  0.00000000E+00  0.00000000E+00
  0.00000000E+00  0.00000000E+00  0.00000000E+00
  0.00000000E+00  0.00000000E+00  0.00000000E+00
  0.00000000E+00  0.00000000E+00  0.00000000E+00
  0.00000000E+00  0.00000000E+00  0.00000000E+00
  0.00000000E+00  0.00000000E+00  0.00000000E+00
  0.00000000E+00  0.00000000E+00  0.00000000E+00
  0.00000000E+00  0.00000000E+00  0.00000000E+00
  0.00000000E+00  0.00000000E+00  0.00000000E+00
  0.00000000E+00  0.00000000E+00  0.00000000E+00
  0.00000000E+00  0.00000000E+00  0.00000000E+00
  0.00000000E+00  0.00000000E+00  0.00000000E+00
  0.00000000E+00  0.00000000E+00  0.00000000E+00
  0.00000000E+00  0.00000000E+00  0.00000000E+00
  0.00000000E+00  0.00000000E+00  0.00000000E+00
  0.00000000E+00  0.00000000E+00  0.00000000E+00
  0.00000000E+00  0.00000000E+00  0.00000000E+00
  0.00000000E+00  0.00000000E+00  0.00000000E+00
  0.00000000E+00  0.00000000E+00  0.00000000E+00
  0.00000000E+00  0.00000000E+00  0.00000000E+00
  0.00000000E+00  0.00000000E+00  0.00000000E+00
  0.00000000E+00  0.00000000E+00  0.00000000E+00
  0.00000000E+00  0.00000000E+00  0.00000000E+00
  0.00000000E+00  0.00000000E+00  0.00000000E+00
  0.00000000E+00  0.00000000E+00  0.00000000E+00
  0.00000000E+00  0.00000000E+00  0.00000000E+00
  0.00000000E+00  0.00000000E+00  0.00000000E+00
  0.00000000E+00  0.00000000E+00  0.00000000E+00
  0.00000000E+00  0.00000000E+00  0.00000000E+00
  0.00000000E+00  0.00000000E+00  0.00000000E+00
  0.00000000E+00  0.00000000E+00  0.00000000E+00
  0.00000000E+00  0.00000000E+00  0.00000000E+00
  0.00000000E+00  0.00000000E+00  0.00000000E+00
  0.00000000E+00  0.00000000E+00  0.00000000E+00
  0.00000000E+00  0.00000000E+00  0.00000000E+00
  0.00000000E+00  0.00000000E+00  0.00000000E+00
  0.00000000E+00  0.00000000E+00  0.00000000E+00
  0.00000000E+00  0.00000000E+00  0.00000000E+00
  0.00000000E+00  0.00000000E+00  0.00000000E+00
