generated by phonopy                    
   1.0000000000000000     
     8.3871423140825687    0.0000000000000000    0.0000000000000000
     0.0000000000000000    8.3871423140825687    0.0000000000000000
     0.0000000000000000    0.0000000000000000    8.3871423140825687
   Mg   O 
    32    31
Direct
 -0.0000000000000000  0.0011827922564392  0.0000000000000000
  0.5000000000000000  0.0026055086193927  0.0000000000000000
 -0.0000000000000000  0.4988172077435608  0.0000000000000000
  0.5000000000000000  0.4973944913806072  0.0000000000000000
 -0.0000000000000000  0.0026055086193927  0.5000000000000000
  0.5000000000000000  0.0207005805892958  0.5000000000000000
 -0.0000000000000000  0.4973944913806072  0.5000000000000000
  0.5000000000000000  0.4792994194107043  0.5000000000000000
 -0.0000000000000000  0.2500000000000000  0.2488172077435609
  0.5000000000000000  0.2500000000000000  0.2473944913806073
 -0.0000000000000000  0.7500000000000000  0.2473944913806073
  0.5000000000000000  0.7500000000000000  0.2292994194107041
 -0.0000000000000000  0.2500000000000000  0.7511827922564389
  0.5000000000000000  0.2500000000000000  0.7526055086193927
 -0.0000000000000000  0.7500000000000000  0.7526055086193927
  0.5000000000000000  0.7500000000000000  0.7707005805892961
  0.2500538011511787 -0.0000538011511787  0.2500538011511787
  0.7499461988488212 -0.0000538011511787  0.2500538011511787
  0.2500538011511787  0.5000538011511787  0.2500538011511787
  0.7499461988488212  0.5000538011511787  0.2500538011511787
  0.2500538011511787 -0.0000538011511787  0.7499461988488212
  0.7499461988488212 -0.0000538011511787  0.7499461988488212
  0.2500538011511787  0.5000538011511787  0.7499461988488212
  0.7499461988488212  0.5000538011511787  0.7499461988488212
  0.2488172077435609  0.2500000000000000  0.0000000000000000
  0.7511827922564389  0.2500000000000000  0.0000000000000000
  0.2473944913806073  0.7500000000000000  0.0000000000000000
  0.7526055086193927  0.7500000000000000  0.0000000000000000
  0.2473944913806073  0.2500000000000000  0.5000000000000000
  0.7526055086193927  0.2500000000000000  0.5000000000000000
  0.2292994194107041  0.7500000000000000  0.5000000000000000
  0.7707005805892961  0.7500000000000000  0.5000000000000000
  0.2516092699748486 -0.0016092699748486  0.0000000000000000
  0.7483907300251513 -0.0016092699748486  0.0000000000000000
  0.2516092699748486  0.5016092699748487  0.0000000000000000
  0.7483907300251513  0.5016092699748487  0.0000000000000000
  0.2560889788076500 -0.0060889788076501  0.5000000000000000
  0.7439110211923498 -0.0060889788076501  0.5000000000000000
  0.2560889788076500  0.5060889788076502  0.5000000000000000
  0.7439110211923498  0.5060889788076502  0.5000000000000000
  0.2516092699748486  0.2500000000000000  0.2516092699748486
  0.7483907300251513  0.2500000000000000  0.2516092699748486
  0.2560889788076500  0.7500000000000000  0.2560889788076500
  0.7439110211923498  0.7500000000000000  0.2560889788076500
  0.2516092699748486  0.2500000000000000  0.7483907300251513
  0.7483907300251513  0.2500000000000000  0.7483907300251513
  0.2560889788076500  0.7500000000000000  0.7439110211923498
  0.7439110211923498  0.7500000000000000  0.7439110211923498
 -0.0000000000000000 -0.0016092699748486  0.2516092699748486
  0.5000000000000000 -0.0060889788076501  0.2560889788076500
 -0.0000000000000000  0.5016092699748487  0.2516092699748486
  0.5000000000000000  0.5060889788076502  0.2560889788076500
 -0.0000000000000000 -0.0016092699748486  0.7483907300251513
  0.5000000000000000 -0.0060889788076501  0.7439110211923498
 -0.0000000000000000  0.5016092699748487  0.7483907300251513
  0.5000000000000000  0.5060889788076502  0.7439110211923498
 -0.0000000000000000  0.2500000000000000  0.0000000000000000
  0.5000000000000000  0.2500000000000000  0.0000000000000000
 -0.0000000000000000  0.7500000000000000  0.0000000000000000
  0.5000000000000000  0.7500000000000000  0.0000000000000000
 -0.0000000000000000  0.2500000000000000  0.5000000000000000
  0.5000000000000000  0.2500000000000000  0.5000000000000000
 -0.0000000000000000  0.7500000000000000  0.5000000000000000

  0.00000000E+00  0.00000000E+00  0.00000000E+00
  0.00000000E+00  0.00000000E+00  0.00000000E+00
  0.00000000E+00  0.00000000E+00  0.00000000E+00
  0.00000000E+00  0.00000000E+00  0.00000000E+00
  0.00000000E+00  0.00000000E+00  0.00000000E+00
  0.00000000E+00  0.00000000E+00  0.00000000E+00
  0.00000000E+00  0.00000000E+00  0.00000000E+00
  0.00000000E+00  0.00000000E+00  0.00000000E+00
  0.00000000E+00  0.00000000E+00  0.00000000E+00
  0.00000000E+00  0.00000000E+00  0.00000000E+00
  0.00000000E+00  0.00000000E+00  0.00000000E+00
  0.00000000E+00  0.00000000E+00  0.00000000E+00
  0.00000000E+00  0.00000000E+00  0.00000000E+00
  0.00000000E+00  0.00000000E+00  0.00000000E+00
  0.00000000E+00  0.00000000E+00  0.00000000E+00
  0.00000000E+00  0.00000000E+00  0.00000000E+00
  0.00000000E+00  0.00000000E+00  0.00000000E+00
  0.00000000E+00  0.00000000E+00  0.00000000E+00
  0.00000000E+00  0.00000000E+00  0.00000000E+00
  0.00000000E+00  0.00000000E+00  0.00000000E+00
  0.00000000E+00  0.00000000E+00  0.00000000E+00
  0.00000000E+00  0.00000000E+00  0.00000000E+00
  0.00000000E+00  0.00000000E+00  0.00000000E+00
  0.00000000E+00  0.00000000E+00  0.00000000E+00
  0.00000000E+00  0.00000000E+00  0.00000000E+00
  0.00000000E+00  0.00000000E+00  0.00000000E+00
  0.00000000E+00  0.00000000E+00  0.00000000E+00
  0.00000000E+00  0.00000000E+00  0.00000000E+00
  0.00000000E+00  0.00000000E+00  0.00000000E+00
  0.00000000E+00  0.00000000E+00  0.00000000E+00
  0.00000000E+00  0.00000000E+00  0.00000000E+00
  0.00000000E+00  0.00000000E+00  0.00000000E+00
  0.00000000E+00  0.00000000E+00  0.00000000E+00
  0.00000000E+00  0.00000000E+00  0.00000000E+00
  0.00000000E+00  0.00000000E+00  0.00000000E+00
  0.00000000E+00  0.00000000E+00  0.00000000E+00
  0.00000000E+00  0.00000000E+00  0.00000000E+00
  0.00000000E+00  0.00000000E+00  0.00000000E+00
  0.00000000E+00  0.00000000E+00  0.00000000E+00
  0.00000000E+00  0.00000000E+00  0.00000000E+00
  0.00000000E+00  0.00000000E+00  0.00000000E+00
  0.00000000E+00  0.00000000E+00  0.00000000E+00
  0.00000000E+00  0.00000000E+00  0.00000000E+00
  0.00000000E+00  0.00000000E+00  0.00000000E+00
  0.00000000E+00  0.00000000E+00  0.00000000E+00
  0.00000000E+00  0.00000000E+00  0.00000000E+00
  0.00000000E+00  0.00000000E+00  0.00000000E+00
  0.00000000E+00  0.00000000E+00  0.00000000E+00
  0.00000000E+00  0.00000000E+00  0.00000000E+00
  0.00000000E+00  0.00000000E+00  0.00000000E+00
  0.00000000E+00  0.00000000E+00  0.00000000E+00
  0.00000000E+00  0.00000000E+00  0.00000000E+00
  0.00000000E+00  0.00000000E+00  0.00000000E+00
  0.00000000E+00  0.00000000E+00  0.00000000E+00
  0.00000000E+00  0.00000000E+00  0.00000000E+00
  0.00000000E+00  0.00000000E+00  0.00000000E+00
  0.00000000E+00  0.00000000E+00  0.00000000E+00
  0.00000000E+00  0.00000000E+00  0.00000000E+00
  0.00000000E+00  0.00000000E+00  0.00000000E+00
  0.00000000E+00  0.00000000E+00  0.00000000E+00
  0.00000000E+00  0.00000000E+00  0.00000000E+00
  0.00000000E+00  0.00000000E+00  0.00000000E+00
  0.00000000E+00  0.00000000E+00  0.00000000E+00
