generated by phonopy                    
   1.0000000000000000     
     8.3871423140825687    0.0000000000000000    0.0000000000000000
     0.0000000000000000    8.3871423140825687    0.0000000000000000
     0.0000000000000000    0.0000000000000000    8.3871423140825687
   Mg   O 
    32    33
Direct
  0.9984450759415925  0.9988404531786724  0.9972149835543772
  0.4984337003105937  0.9963068524887880  0.9937335418985469
  0.9983611547789171  0.5004347049543117  0.9996426970128395
  0.4968971555668141  0.4990770742752761  0.9839261373024027
  0.9986010607594369  0.0000743469969709  0.4983214116290062
  0.4979202859825293  0.9914769648648279  0.4974372650933042
  0.9955574237211035  0.5063288511521700  0.5021841052196457
  0.5140834752839798  0.5431611716538536  0.5279557224678539
  0.9975399813340652  0.2470712484600551  0.2430357500246531
  0.5011703962740326  0.2263909283814745  0.2217928907652779
  0.9977381923287041  0.7501812822994622  0.2483669237966989
  0.4971513811529972  0.7648402040292833  0.2481920089895855
  0.9990450134364159  0.2510543947988788  0.7504180130154802
  0.5017256636624305  0.2490598504740185  0.7564860317861354
  0.9986789165824776  0.7522912024176213  0.7510305645984524
  0.4980738351864186  0.7594314242251279  0.7571079448262847
  0.2445988265810415  0.9991502979194157  0.2463942022189993
  0.7513869461310853  0.9988036273628206  0.2482840956558214
  0.2355051497143840  0.4994945749537072  0.2505569574706270
  0.7579995629375291  0.4963373487400033  0.2523555970337659
  0.2482057957186002  0.0029902206664310  0.7467912154473531
  0.7503958605480143  0.0016942048459218  0.7481976281946540
  0.2451966174526542  0.5022088230255546  0.7482418853456257
  0.7531359969210629  0.5006130836329471  0.7536659175259811
  0.2457568511855042  0.2503328607256569  0.9954932266782597
  0.7520131995288456  0.2493474610442205  0.9965246754654238
  0.2472714543453753  0.7489292333836943  0.0003118767066766
  0.7485127621728762  0.7484882734850876  0.0013858561253017
  0.2276620958590002  0.2506801576957578  0.4953442311559747
  0.7679169059213545  0.2513838189389270  0.4991510319300763
  0.2439797754726505  0.7556707005545166  0.4987285844079112
  0.7544397689338161  0.7572654184101736  0.4995180415681872
  0.2492613102466324  0.9996184916848632  0.9963667073201997
  0.7476268340536449  0.9987787893901888  0.9983138009745772
  0.2523012963836475  0.4993326472573097  0.0025119500930247
  0.7421355221806535  0.4988734765572743  0.0050218469050298
  0.2501774093592491  0.0057098743308061  0.4963685911214759
  0.7495018676259089  0.0022767646036965  0.4982507311284081
  0.2353662643956872  0.5126845189674778  0.5022502513431929
  0.7490964313472943  0.5033594905939284  0.5020838060253382
  0.2433688140861711  0.2463759906333235  0.2427002007960805
  0.7493592763706622  0.2481375418615765  0.2461090286220715
  0.2520270690538341  0.7469735555816949  0.2492694129016944
  0.7425037232515299  0.7447917383013504  0.2509684492547721
  0.2530105742882131  0.2531880132383631  0.7409909094334040
  0.7495980170803314  0.2518447687809439  0.7483586349018153
  0.2499582112975051  0.7526634422112150  0.7499742895345566
  0.7467802873210418  0.7506763787464458  0.7500486360634567
  0.9976872577148966  0.9974931126436736  0.2474828431501929
  0.4979150121999946  0.9983912545318382  0.2451577705399431
  0.9966183425134185  0.4998006396917490  0.2490641007070085
  0.4959047601732849  0.4587745811249704  0.2869838015065877
  0.9995694875702995  0.0015676712038574  0.7479376637509072
  0.4993252830504354  0.0037788865829563  0.7463660010842411
  0.9977480967356364  0.5018491704557094  0.7526141103628826
  0.4990361428360593  0.5009663783593133  0.7499193020754656
  0.9988114212331416  0.2502822741991318  0.9959301297156499
  0.4984076302651502  0.2508142384839576  0.9935823199237380
  0.9979085121863972  0.7490655265957062  0.0001362625223455
  0.4978723507047961  0.7446859375556599  0.0041489294163138
  0.9979453910187867  0.2521475599047419  0.4976137946269699
  0.5356489411305344  0.2304316935259160  0.4899541126368630
  0.9975198371757040  0.7543954371438084  0.4993998481296213
  0.4984387145051932  0.7612095932291784  0.4977186021154932
  0.4431696289180194  0.3546495019917104  0.4336121464055432

  0.00000000E+00  0.00000000E+00  0.00000000E+00
  0.00000000E+00  0.00000000E+00  0.00000000E+00
  0.00000000E+00  0.00000000E+00  0.00000000E+00
  0.00000000E+00  0.00000000E+00  0.00000000E+00
  0.00000000E+00  0.00000000E+00  0.00000000E+00
  0.00000000E+00  0.00000000E+00  0.00000000E+00
  0.00000000E+00  0.00000000E+00  0.00000000E+00
  0.00000000E+00  0.00000000E+00  0.00000000E+00
  0.00000000E+00  0.00000000E+00  0.00000000E+00
  0.00000000E+00  0.00000000E+00  0.00000000E+00
  0.00000000E+00  0.00000000E+00  0.00000000E+00
  0.00000000E+00  0.00000000E+00  0.00000000E+00
  0.00000000E+00  0.00000000E+00  0.00000000E+00
  0.00000000E+00  0.00000000E+00  0.00000000E+00
  0.00000000E+00  0.00000000E+00  0.00000000E+00
  0.00000000E+00  0.00000000E+00  0.00000000E+00
  0.00000000E+00  0.00000000E+00  0.00000000E+00
  0.00000000E+00  0.00000000E+00  0.00000000E+00
  0.00000000E+00  0.00000000E+00  0.00000000E+00
  0.00000000E+00  0.00000000E+00  0.00000000E+00
  0.00000000E+00  0.00000000E+00  0.00000000E+00
  0.00000000E+00  0.00000000E+00  0.00000000E+00
  0.00000000E+00  0.00000000E+00  0.00000000E+00
  0.00000000E+00  0.00000000E+00  0.00000000E+00
  0.00000000E+00  0.00000000E+00  0.00000000E+00
  0.00000000E+00  0.00000000E+00  0.00000000E+00
  0.00000000E+00  0.00000000E+00  0.00000000E+00
  0.00000000E+00  0.00000000E+00  0.00000000E+00
  0.00000000E+00  0.00000000E+00  0.00000000E+00
  0.00000000E+00  0.00000000E+00  0.00000000E+00
  0.00000000E+00  0.00000000E+00  0.00000000E+00
  0.00000000E+00  0.00000000E+00  0.00000000E+00
  0.00000000E+00  0.00000000E+00  0.00000000E+00
  0.00000000E+00  0.00000000E+00  0.00000000E+00
  0.00000000E+00  0.00000000E+00  0.00000000E+00
  0.00000000E+00  0.00000000E+00  0.00000000E+00
  0.00000000E+00  0.00000000E+00  0.00000000E+00
  0.00000000E+00  0.00000000E+00  0.00000000E+00
  0.00000000E+00  0.00000000E+00  0.00000000E+00
  0.00000000E+00  0.00000000E+00  0.00000000E+00
  0.00000000E+00  0.00000000E+00  0.00000000E+00
  0.00000000E+00  0.00000000E+00  0.00000000E+00
  0.00000000E+00  0.00000000E+00  0.00000000E+00
  0.00000000E+00  0.00000000E+00  0.00000000E+00
  0.00000000E+00  0.00000000E+00  0.00000000E+00
  0.00000000E+00  0.00000000E+00  0.00000000E+00
  0.00000000E+00  0.00000000E+00  0.00000000E+00
  0.00000000E+00  0.00000000E+00  0.00000000E+00
  0.00000000E+00  0.00000000E+00  0.00000000E+00
  0.00000000E+00  0.00000000E+00  0.00000000E+00
  0.00000000E+00  0.00000000E+00  0.00000000E+00
  0.00000000E+00  0.00000000E+00  0.00000000E+00
  0.00000000E+00  0.00000000E+00  0.00000000E+00
  0.00000000E+00  0.00000000E+00  0.00000000E+00
  0.00000000E+00  0.00000000E+00  0.00000000E+00
  0.00000000E+00  0.00000000E+00  0.00000000E+00
  0.00000000E+00  0.00000000E+00  0.00000000E+00
  0.00000000E+00  0.00000000E+00  0.00000000E+00
  0.00000000E+00  0.00000000E+00  0.00000000E+00
  0.00000000E+00  0.00000000E+00  0.00000000E+00
  0.00000000E+00  0.00000000E+00  0.00000000E+00
  0.00000000E+00  0.00000000E+00  0.00000000E+00
  0.00000000E+00  0.00000000E+00  0.00000000E+00
  0.00000000E+00  0.00000000E+00  0.00000000E+00
  0.00000000E+00  0.00000000E+00  0.00000000E+00
