generated by phonopy                    
   1.0000000000000000     
     8.3871423140825687    0.0000000000000000    0.0000000000000000
     0.0000000000000000    8.3871423140825687    0.0000000000000000
     0.0000000000000000    0.0000000000000000    8.3871423140825687
   Mg   O 
    33    32
Direct
  0.3750000000000000  0.3750000000000000  0.3750000000000000
  0.9998985001232068  0.9998985001232068  0.9998985001232068
  0.5006454395735591  0.9939470194717853  0.9939470194717853
  0.9939470194717853  0.5006454395735591  0.9939470194717853
  0.5006132124298937  0.5006132124298937  0.0002560628323393
  0.9939470194717853  0.9939470194717853  0.5006454395735591
  0.5006132124298937  0.0002560628323393  0.5006132124298937
  0.0002560628323393  0.5006132124298937  0.5006132124298937
  0.5325596877706305  0.5325596877706305  0.5325596877706305
  0.0002560628323393  0.2493867875701065  0.2493867875701065
  0.5325596877706305  0.2174403122293697  0.2174403122293697
  0.9939470194717853  0.7560529805282147  0.2493545604264412
  0.5006132124298937  0.7497439371676606  0.2493867875701065
  0.9939470194717853  0.2493545604264412  0.7560529805282147
  0.5006132124298937  0.2493867875701065  0.7497439371676606
  0.9998985001232068  0.7501014998767932  0.7501014998767932
  0.5006454395735591  0.7560529805282147  0.7560529805282147
  0.2493867875701065  0.0002560628323393  0.2493867875701065
  0.7560529805282147  0.9939470194717853  0.2493545604264412
  0.2174403122293697  0.5325596877706305  0.2174403122293697
  0.7497439371676606  0.5006132124298937  0.2493867875701065
  0.2493545604264412  0.9939470194717853  0.7560529805282147
  0.7501014998767932  0.9998985001232068  0.7501014998767932
  0.2493867875701065  0.5006132124298937  0.7497439371676606
  0.7560529805282147  0.5006454395735591  0.7560529805282147
  0.2493867875701065  0.2493867875701065  0.0002560628323393
  0.7560529805282147  0.2493545604264412  0.9939470194717853
  0.2493545604264412  0.7560529805282147  0.9939470194717853
  0.7501014998767932  0.7501014998767932  0.9998985001232068
  0.2174403122293697  0.2174403122293697  0.5325596877706305
  0.7497439371676606  0.2493867875701065  0.5006132124298937
  0.2493867875701065  0.7497439371676606  0.5006132124298937
  0.7560529805282147  0.7560529805282147  0.5006454395735591
  0.2500449388951926  0.9989163030149131  0.9989163030149131
  0.7507674163162451  0.9992325836837549  0.9992325836837549
  0.2452594319484841  0.5047405680515159  0.9900282323647330
  0.7510836969850869  0.4999550611048075  0.9989163030149131
  0.2452594319484841  0.9900282323647330  0.5047405680515159
  0.7510836969850869  0.9989163030149131  0.4999550611048075
  0.2427430875722864  0.5072569124277136  0.5072569124277136
  0.7599717676352670  0.5047405680515159  0.5047405680515159
  0.2427430875722864  0.2427430875722864  0.2427430875722864
  0.7599717676352670  0.2452594319484841  0.2452594319484841
  0.2452594319484841  0.7599717676352670  0.2452594319484841
  0.7510836969850869  0.7510836969850869  0.2500449388951926
  0.2452594319484841  0.2452594319484841  0.7599717676352670
  0.7510836969850869  0.2500449388951926  0.7510836969850869
  0.2500449388951926  0.7510836969850869  0.7510836969850869
  0.7507674163162451  0.7507674163162451  0.7507674163162451
  0.9989163030149131  0.9989163030149131  0.2500449388951926
  0.5047405680515159  0.9900282323647330  0.2452594319484841
  0.9900282323647330  0.5047405680515159  0.2452594319484841
  0.5072569124277136  0.5072569124277136  0.2427430875722864
  0.9992325836837549  0.9992325836837549  0.7507674163162451
  0.4999550611048075  0.9989163030149131  0.7510836969850869
  0.9989163030149131  0.4999550611048075  0.7510836969850869
  0.5047405680515159  0.5047405680515159  0.7599717676352670
  0.9989163030149131  0.2500449388951926  0.9989163030149131
  0.5047405680515159  0.2452594319484841  0.9900282323647330
  0.9992325836837549  0.7507674163162451  0.9992325836837549
  0.4999550611048075  0.7510836969850869  0.9989163030149131
  0.9900282323647330  0.2452594319484841  0.5047405680515159
  0.5072569124277136  0.2427430875722864  0.5072569124277136
  0.9989163030149131  0.7510836969850869  0.4999550611048075
  0.5047405680515159  0.7599717676352670  0.5047405680515159

  0.00000000E+00  0.00000000E+00  0.00000000E+00
  0.00000000E+00  0.00000000E+00  0.00000000E+00
  0.00000000E+00  0.00000000E+00  0.00000000E+00
  0.00000000E+00  0.00000000E+00  0.00000000E+00
  0.00000000E+00  0.00000000E+00  0.00000000E+00
  0.00000000E+00  0.00000000E+00  0.00000000E+00
  0.00000000E+00  0.00000000E+00  0.00000000E+00
  0.00000000E+00  0.00000000E+00  0.00000000E+00
  0.00000000E+00  0.00000000E+00  0.00000000E+00
  0.00000000E+00  0.00000000E+00  0.00000000E+00
  0.00000000E+00  0.00000000E+00  0.00000000E+00
  0.00000000E+00  0.00000000E+00  0.00000000E+00
  0.00000000E+00  0.00000000E+00  0.00000000E+00
  0.00000000E+00  0.00000000E+00  0.00000000E+00
  0.00000000E+00  0.00000000E+00  0.00000000E+00
  0.00000000E+00  0.00000000E+00  0.00000000E+00
  0.00000000E+00  0.00000000E+00  0.00000000E+00
  0.00000000E+00  0.00000000E+00  0.00000000E+00
  0.00000000E+00  0.00000000E+00  0.00000000E+00
  0.00000000E+00  0.00000000E+00  0.00000000E+00
  0.00000000E+00  0.00000000E+00  0.00000000E+00
  0.00000000E+00  0.00000000E+00  0.00000000E+00
  0.00000000E+00  0.00000000E+00  0.00000000E+00
  0.00000000E+00  0.00000000E+00  0.00000000E+00
  0.00000000E+00  0.00000000E+00  0.00000000E+00
  0.00000000E+00  0.00000000E+00  0.00000000E+00
  0.00000000E+00  0.00000000E+00  0.00000000E+00
  0.00000000E+00  0.00000000E+00  0.00000000E+00
  0.00000000E+00  0.00000000E+00  0.00000000E+00
  0.00000000E+00  0.00000000E+00  0.00000000E+00
  0.00000000E+00  0.00000000E+00  0.00000000E+00
  0.00000000E+00  0.00000000E+00  0.00000000E+00
  0.00000000E+00  0.00000000E+00  0.00000000E+00
  0.00000000E+00  0.00000000E+00  0.00000000E+00
  0.00000000E+00  0.00000000E+00  0.00000000E+00
  0.00000000E+00  0.00000000E+00  0.00000000E+00
  0.00000000E+00  0.00000000E+00  0.00000000E+00
  0.00000000E+00  0.00000000E+00  0.00000000E+00
  0.00000000E+00  0.00000000E+00  0.00000000E+00
  0.00000000E+00  0.00000000E+00  0.00000000E+00
  0.00000000E+00  0.00000000E+00  0.00000000E+00
  0.00000000E+00  0.00000000E+00  0.00000000E+00
  0.00000000E+00  0.00000000E+00  0.00000000E+00
  0.00000000E+00  0.00000000E+00  0.00000000E+00
  0.00000000E+00  0.00000000E+00  0.00000000E+00
  0.00000000E+00  0.00000000E+00  0.00000000E+00
  0.00000000E+00  0.00000000E+00  0.00000000E+00
  0.00000000E+00  0.00000000E+00  0.00000000E+00
  0.00000000E+00  0.00000000E+00  0.00000000E+00
  0.00000000E+00  0.00000000E+00  0.00000000E+00
  0.00000000E+00  0.00000000E+00  0.00000000E+00
  0.00000000E+00  0.00000000E+00  0.00000000E+00
  0.00000000E+00  0.00000000E+00  0.00000000E+00
  0.00000000E+00  0.00000000E+00  0.00000000E+00
  0.00000000E+00  0.00000000E+00  0.00000000E+00
  0.00000000E+00  0.00000000E+00  0.00000000E+00
  0.00000000E+00  0.00000000E+00  0.00000000E+00
  0.00000000E+00  0.00000000E+00  0.00000000E+00
  0.00000000E+00  0.00000000E+00  0.00000000E+00
  0.00000000E+00  0.00000000E+00  0.00000000E+00
  0.00000000E+00  0.00000000E+00  0.00000000E+00
  0.00000000E+00  0.00000000E+00  0.00000000E+00
  0.00000000E+00  0.00000000E+00  0.00000000E+00
  0.00000000E+00  0.00000000E+00  0.00000000E+00
  0.00000000E+00  0.00000000E+00  0.00000000E+00
