generated by phonopy                    
   1.0000000000000000     
     8.3871423140825687    0.0000000000000000    0.0000000000000000
     0.0000000000000000    8.3871423140825687    0.0000000000000000
     0.0000000000000000    0.0000000000000000    8.3871423140825687
   Mg   O 
    33    31
Direct
  0.8070433196884070  0.4434285891486935  0.5042196799880095
 -0.0005260706733362  0.0031194410079201  0.9996051259164096
  0.4977884638074166  1.0005683839363255  0.0002076911640920
  0.0044952203749595  0.5017875689110700  0.9989972754326736
  0.4930522575938113  0.5003869846217993  0.0008749853047441
  0.0008221249650324  0.0059185986190349  0.4998863580633978
  0.4885074281327128  0.9888396215574776  0.5001127441990515
  0.0463850788950957  0.5427979014207313  0.4913916465273044
  0.5026159042685396  0.4926156400236157  0.5016615927431631
  0.9950075728580543  0.2557554714252587  0.2498035496672160
  0.4981055956051416  0.2506447423243405  0.2507277763015211
 -0.0004507258510228  0.7535271803330381  0.2485205416974989
  0.4995872773975370  0.7511577763068966  0.2477173109104894
  0.9942825550001777  0.2548309885838720  0.7503680854265387
  0.4972395476241724  0.2505647399188531  0.7507078993132023
 -0.0008313470982554  0.7512754360449874  0.7486127952097068
  0.4986793816535232  0.7505488275121491  0.7522850662530727
  0.2477997547163709  1.0027606880967117  0.2491796576174658
  0.7495269000736844 -0.0024366253984739  0.2441324991333117
  0.2551366140721016  0.5005460348578714  0.2426875714744544
  0.7418328457613279  0.5115929325929994  0.2327413862420556
  0.2471921347158444  1.0022746772988003  0.7507752676608517
  0.7493754407470909  0.9954616424611935  0.7567335479380104
  0.2517757090163101  0.5005023749551887  0.7553155976102149
  0.7364151508942243  0.5099265257526645  0.7705005040918480
  0.2468889161935707  0.2505330118177527  0.0000431039338385
  0.7482111062288808  0.2454469696650684  0.0009391343930112
  0.2494311229272553  0.7522105730593113  0.9995785998122609
  0.7496091401996136  0.7569080261423610  0.9997714261508150
  0.2440698323160476  0.2491925156703795  0.5002036316346230
  0.7074964300479323  0.2037092323795667  0.5027422440955311
  0.2611649778883358  0.7615257022050645  0.5001411183542515
  0.7573387929598953  0.7474094886409808  0.4984247549163819
  0.2483326836419915  1.0016456122637856 -0.0000349612901105
  0.7492211613582620  0.9998800963801129  1.0004900601213580
  0.2500894775868359  0.5007955367320504 -0.0005195890042566
  0.7495900628418416  0.5004364422826140  1.0007100093744283
  0.2465638412325014  1.0034614325092255  0.4999685450372854
  0.7495501014122916 -0.0150931710997391  0.5001539429683894
  0.2649872119309424  0.5004443895130899  0.4998364975246009
  0.2472331015306128  0.2502490775391444  0.2499037845076029
  0.7478808155926175  0.2382893230152975  0.2430542516574979
  0.2523068803527467  0.7531279418797986  0.2490001058995017
  0.7473804574453941  0.7599571740464448  0.2375302662536953
  0.2462024541712776  0.2498329517164194  0.7503410954886914
  0.7473306331964551  0.2344981920798892  0.7604201335773126
  0.2514108024580186  0.7527988133407598  0.7505335596129029
  0.7472618709505670  0.7572882460774799  0.7607802975700036
  0.0002209748026085  0.0037587252516599  0.2495465820027925
  0.4972831704385016  0.9985798178567119  0.2494556580948853
  0.0160656156301422  0.5028120803834035  0.2391986446284440
  0.4930459423699465  0.5026600385595865  0.2396959740808323
 -0.0002571223044432  0.0028429563820033  0.7500159994946617
  0.4968216951813819  0.9977341211838979  0.7509573322804036
  0.0109609366288178  0.5019423928995643  0.7567265542427017
  0.4895874180006773  0.5026638016682278  0.7629294233037230
 -0.0009046157459965  0.2509151617235355  1.0000070516194448
  0.4963493566461929  0.2488712748683067  0.0007817015445657
  0.0011529257403923  0.7536826539477186  0.9992269487872667
  0.4979552633635339  0.7520565893482176 -0.0000000346710493
  0.9890588742493338  0.2607015330286913  0.5000059527798957
  0.4769300636706810  0.2247853084435751  0.5003492286525482
  0.0252455671880479  0.7731741293218618  0.4993498832780073
  0.5000739254373331  0.7498756949632301  0.4999749314049284

  0.00000000E+00  0.00000000E+00  0.00000000E+00
  0.00000000E+00  0.00000000E+00  0.00000000E+00
  0.00000000E+00  0.00000000E+00  0.00000000E+00
  0.00000000E+00  0.00000000E+00  0.00000000E+00
  0.00000000E+00  0.00000000E+00  0.00000000E+00
  0.00000000E+00  0.00000000E+00  0.00000000E+00
  0.00000000E+00  0.00000000E+00  0.00000000E+00
  0.00000000E+00  0.00000000E+00  0.00000000E+00
  0.00000000E+00  0.00000000E+00  0.00000000E+00
  0.00000000E+00  0.00000000E+00  0.00000000E+00
  0.00000000E+00  0.00000000E+00  0.00000000E+00
  0.00000000E+00  0.00000000E+00  0.00000000E+00
  0.00000000E+00  0.00000000E+00  0.00000000E+00
  0.00000000E+00  0.00000000E+00  0.00000000E+00
  0.00000000E+00  0.00000000E+00  0.00000000E+00
  0.00000000E+00  0.00000000E+00  0.00000000E+00
  0.00000000E+00  0.00000000E+00  0.00000000E+00
  0.00000000E+00  0.00000000E+00  0.00000000E+00
  0.00000000E+00  0.00000000E+00  0.00000000E+00
  0.00000000E+00  0.00000000E+00  0.00000000E+00
  0.00000000E+00  0.00000000E+00  0.00000000E+00
  0.00000000E+00  0.00000000E+00  0.00000000E+00
  0.00000000E+00  0.00000000E+00  0.00000000E+00
  0.00000000E+00  0.00000000E+00  0.00000000E+00
  0.00000000E+00  0.00000000E+00  0.00000000E+00
  0.00000000E+00  0.00000000E+00  0.00000000E+00
  0.00000000E+00  0.00000000E+00  0.00000000E+00
  0.00000000E+00  0.00000000E+00  0.00000000E+00
  0.00000000E+00  0.00000000E+00  0.00000000E+00
  0.00000000E+00  0.00000000E+00  0.00000000E+00
  0.00000000E+00  0.00000000E+00  0.00000000E+00
  0.00000000E+00  0.00000000E+00  0.00000000E+00
  0.00000000E+00  0.00000000E+00  0.00000000E+00
  0.00000000E+00  0.00000000E+00  0.00000000E+00
  0.00000000E+00  0.00000000E+00  0.00000000E+00
  0.00000000E+00  0.00000000E+00  0.00000000E+00
  0.00000000E+00  0.00000000E+00  0.00000000E+00
  0.00000000E+00  0.00000000E+00  0.00000000E+00
  0.00000000E+00  0.00000000E+00  0.00000000E+00
  0.00000000E+00  0.00000000E+00  0.00000000E+00
  0.00000000E+00  0.00000000E+00  0.00000000E+00
  0.00000000E+00  0.00000000E+00  0.00000000E+00
  0.00000000E+00  0.00000000E+00  0.00000000E+00
  0.00000000E+00  0.00000000E+00  0.00000000E+00
  0.00000000E+00  0.00000000E+00  0.00000000E+00
  0.00000000E+00  0.00000000E+00  0.00000000E+00
  0.00000000E+00  0.00000000E+00  0.00000000E+00
  0.00000000E+00  0.00000000E+00  0.00000000E+00
  0.00000000E+00  0.00000000E+00  0.00000000E+00
  0.00000000E+00  0.00000000E+00  0.00000000E+00
  0.00000000E+00  0.00000000E+00  0.00000000E+00
  0.00000000E+00  0.00000000E+00  0.00000000E+00
  0.00000000E+00  0.00000000E+00  0.00000000E+00
  0.00000000E+00  0.00000000E+00  0.00000000E+00
  0.00000000E+00  0.00000000E+00  0.00000000E+00
  0.00000000E+00  0.00000000E+00  0.00000000E+00
  0.00000000E+00  0.00000000E+00  0.00000000E+00
  0.00000000E+00  0.00000000E+00  0.00000000E+00
  0.00000000E+00  0.00000000E+00  0.00000000E+00
  0.00000000E+00  0.00000000E+00  0.00000000E+00
  0.00000000E+00  0.00000000E+00  0.00000000E+00
  0.00000000E+00  0.00000000E+00  0.00000000E+00
  0.00000000E+00  0.00000000E+00  0.00000000E+00
  0.00000000E+00  0.00000000E+00  0.00000000E+00
