generated by phonopy                    
   1.0000000000000000     
     8.3871423140825687    0.0000000000000000    0.0000000000000000
     0.0000000000000000    8.3871423140825687    0.0000000000000000
     0.0000000000000000    0.0000000000000000    8.3871423140825687
   Mg   O 
    31    32
Direct
 -0.0000000000000000  0.0000000000000000 -0.0000000000000000
  0.5000000000000000  0.0000000000000000 -0.0000000000000000
 -0.0000000000000000  0.5000000000000000 -0.0000000000000000
  0.5000000000000000  0.5000000000000000 -0.0000000000000000
 -0.0000000000000000  0.0000000000000000  0.5000000000000000
  0.5000000000000000  0.0000000000000000  0.5000000000000000
 -0.0000000000000000  0.5000000000000000  0.5000000000000000
 -0.0000000000000000  0.2518185611740356  0.2518185611740356
  0.5000000000000000  0.2570138135609801  0.2570138135609801
 -0.0000000000000000  0.7481814388259647  0.2518185611740356
  0.5000000000000000  0.7429861864390200  0.2570138135609801
 -0.0000000000000000  0.2518185611740356  0.7481814388259647
  0.5000000000000000  0.2570138135609801  0.7429861864390200
 -0.0000000000000000  0.7481814388259647  0.7481814388259647
  0.5000000000000000  0.7429861864390200  0.7429861864390200
  0.2518185611740356  0.0000000000000000  0.2518185611740356
  0.7481814388259647  0.0000000000000000  0.2518185611740356
  0.2570138135609801  0.5000000000000000  0.2570138135609801
  0.7429861864390200  0.5000000000000000  0.2570138135609801
  0.2518185611740356  0.0000000000000000  0.7481814388259647
  0.7481814388259647  0.0000000000000000  0.7481814388259647
  0.2570138135609801  0.5000000000000000  0.7429861864390200
  0.7429861864390200  0.5000000000000000  0.7429861864390200
  0.2518185611740356  0.2518185611740356 -0.0000000000000000
  0.7481814388259647  0.2518185611740356 -0.0000000000000000
  0.2518185611740356  0.7481814388259647 -0.0000000000000000
  0.7481814388259647  0.7481814388259647 -0.0000000000000000
  0.2570138135609801  0.2570138135609801  0.5000000000000000
  0.7429861864390200  0.2570138135609801  0.5000000000000000
  0.2570138135609801  0.7429861864390200  0.5000000000000000
  0.7429861864390200  0.7429861864390200  0.5000000000000000
  0.2488540129866274  0.0000000000000000 -0.0000000000000000
  0.7511459870133722  0.0000000000000000 -0.0000000000000000
  0.2473962798704543  0.5000000000000000 -0.0000000000000000
  0.7526037201295454  0.5000000000000000 -0.0000000000000000
  0.2473962798704543  0.0000000000000000  0.5000000000000000
  0.7526037201295454  0.0000000000000000  0.5000000000000000
  0.2352757559971926  0.5000000000000000  0.5000000000000000
  0.7647242440028073  0.5000000000000000  0.5000000000000000
  0.2499724257693343  0.2499724257693343  0.2499724257693343
  0.7500275742306655  0.2499724257693343  0.2499724257693343
  0.2499724257693343  0.7500275742306655  0.2499724257693343
  0.7500275742306655  0.7500275742306655  0.2499724257693343
  0.2499724257693343  0.2499724257693343  0.7500275742306655
  0.7500275742306655  0.2499724257693343  0.7500275742306655
  0.2499724257693343  0.7500275742306655  0.7500275742306655
  0.7500275742306655  0.7500275742306654  0.7500275742306655
 -0.0000000000000000  0.0000000000000000  0.2488540129866274
  0.5000000000000000  0.0000000000000000  0.2473962798704543
 -0.0000000000000000  0.5000000000000000  0.2473962798704543
  0.5000000000000000  0.5000000000000000  0.2352757559971926
 -0.0000000000000000  0.0000000000000000  0.7511459870133722
  0.5000000000000000  0.0000000000000000  0.7526037201295454
 -0.0000000000000000  0.5000000000000000  0.7526037201295454
  0.5000000000000000  0.5000000000000000  0.7647242440028071
 -0.0000000000000000  0.2488540129866274 -0.0000000000000000
  0.5000000000000000  0.2473962798704543 -0.0000000000000000
 -0.0000000000000000  0.7511459870133722 -0.0000000000000000
  0.5000000000000000  0.7526037201295454 -0.0000000000000000
 -0.0000000000000000  0.2473962798704543  0.5000000000000000
  0.5000000000000000  0.2352757559971926  0.5000000000000000
 -0.0000000000000000  0.7526037201295454  0.5000000000000000
  0.5000000000000000  0.7647242440028073  0.5000000000000000

  0.00000000E+00  0.00000000E+00  0.00000000E+00
  0.00000000E+00  0.00000000E+00  0.00000000E+00
  0.00000000E+00  0.00000000E+00  0.00000000E+00
  0.00000000E+00  0.00000000E+00  0.00000000E+00
  0.00000000E+00  0.00000000E+00  0.00000000E+00
  0.00000000E+00  0.00000000E+00  0.00000000E+00
  0.00000000E+00  0.00000000E+00  0.00000000E+00
  0.00000000E+00  0.00000000E+00  0.00000000E+00
  0.00000000E+00  0.00000000E+00  0.00000000E+00
  0.00000000E+00  0.00000000E+00  0.00000000E+00
  0.00000000E+00  0.00000000E+00  0.00000000E+00
  0.00000000E+00  0.00000000E+00  0.00000000E+00
  0.00000000E+00  0.00000000E+00  0.00000000E+00
  0.00000000E+00  0.00000000E+00  0.00000000E+00
  0.00000000E+00  0.00000000E+00  0.00000000E+00
  0.00000000E+00  0.00000000E+00  0.00000000E+00
  0.00000000E+00  0.00000000E+00  0.00000000E+00
  0.00000000E+00  0.00000000E+00  0.00000000E+00
  0.00000000E+00  0.00000000E+00  0.00000000E+00
  0.00000000E+00  0.00000000E+00  0.00000000E+00
  0.00000000E+00  0.00000000E+00  0.00000000E+00
  0.00000000E+00  0.00000000E+00  0.00000000E+00
  0.00000000E+00  0.00000000E+00  0.00000000E+00
  0.00000000E+00  0.00000000E+00  0.00000000E+00
  0.00000000E+00  0.00000000E+00  0.00000000E+00
  0.00000000E+00  0.00000000E+00  0.00000000E+00
  0.00000000E+00  0.00000000E+00  0.00000000E+00
  0.00000000E+00  0.00000000E+00  0.00000000E+00
  0.00000000E+00  0.00000000E+00  0.00000000E+00
  0.00000000E+00  0.00000000E+00  0.00000000E+00
  0.00000000E+00  0.00000000E+00  0.00000000E+00
  0.00000000E+00  0.00000000E+00  0.00000000E+00
  0.00000000E+00  0.00000000E+00  0.00000000E+00
  0.00000000E+00  0.00000000E+00  0.00000000E+00
  0.00000000E+00  0.00000000E+00  0.00000000E+00
  0.00000000E+00  0.00000000E+00  0.00000000E+00
  0.00000000E+00  0.00000000E+00  0.00000000E+00
  0.00000000E+00  0.00000000E+00  0.00000000E+00
  0.00000000E+00  0.00000000E+00  0.00000000E+00
  0.00000000E+00  0.00000000E+00  0.00000000E+00
  0.00000000E+00  0.00000000E+00  0.00000000E+00
  0.00000000E+00  0.00000000E+00  0.00000000E+00
  0.00000000E+00  0.00000000E+00  0.00000000E+00
  0.00000000E+00  0.00000000E+00  0.00000000E+00
  0.00000000E+00  0.00000000E+00  0.00000000E+00
  0.00000000E+00  0.00000000E+00  0.00000000E+00
  0.00000000E+00  0.00000000E+00  0.00000000E+00
  0.00000000E+00  0.00000000E+00  0.00000000E+00
  0.00000000E+00  0.00000000E+00  0.00000000E+00
  0.00000000E+00  0.00000000E+00  0.00000000E+00
  0.00000000E+00  0.00000000E+00  0.00000000E+00
  0.00000000E+00  0.00000000E+00  0.00000000E+00
  0.00000000E+00  0.00000000E+00  0.00000000E+00
  0.00000000E+00  0.00000000E+00  0.00000000E+00
  0.00000000E+00  0.00000000E+00  0.00000000E+00
  0.00000000E+00  0.00000000E+00  0.00000000E+00
  0.00000000E+00  0.00000000E+00  0.00000000E+00
  0.00000000E+00  0.00000000E+00  0.00000000E+00
  0.00000000E+00  0.00000000E+00  0.00000000E+00
  0.00000000E+00  0.00000000E+00  0.00000000E+00
  0.00000000E+00  0.00000000E+00  0.00000000E+00
  0.00000000E+00  0.00000000E+00  0.00000000E+00
  0.00000000E+00  0.00000000E+00  0.00000000E+00
