generated by phonopy                    
   1.0000000000000000     
     8.3871423140825687    0.0000000000000000    0.0000000000000000
     0.0000000000000000    8.3871423140825687    0.0000000000000000
     0.0000000000000000    0.0000000000000000    8.3871423140825687
   Mg   O 
    31    33
Direct
 -0.0000000964952671  0.0000002873140227 -0.0000000724267591
  0.5000001513570840  0.0000002945650592 -0.0000000237427728
 -0.0000003753446359  0.4999997030913024 -0.0000001871247077
  0.5000000494269490  0.4999996136446805 -0.0000021349716259
 -0.0000002295876613  0.0000006813064835  0.5000001147131816
  0.5000002746673259  0.0000096794903081  0.5000002701606129
 -0.0000044355842828  0.4999996099857533  0.4999999783986306
 -0.0000001584650244  0.2492282413754286  0.2492286368787025
  0.5000000884737306  0.2491370413751333  0.2491403804977736
  0.0000000228891103  0.7507720261784150  0.2492279486962289
  0.5000002067290448  0.7508638873337022  0.2491342796348913
 -0.0000001530014947  0.2492282913290811  0.7507716391064343
  0.5000000365312534  0.2491382020250088  0.7508599077294575
  0.0000000356413965  0.7507718552075808  0.7507717357730999
  0.5000002788622138  0.7508621512302114  0.7508657200367553
  0.2492281072264495  0.0000001431327192  0.2492283527809697
  0.7507721263800373  0.0000002636255175  0.2492282184275748
  0.2491359451782350  0.4999996177185146  0.2491359241940417
  0.7508635113003974  0.4999997169827907  0.2491382455585354
  0.2492281223735902  0.0000000770984096  0.7507720562324066
  0.7507720057567228  0.0000001305225310  0.7507716226181995
  0.2491373568394540  0.4999995747729178  0.7508640847751806
  0.7508620941393535  0.4999997729367339  0.7508611073684155
  0.2492281379162612  0.2492279886896363  0.0000002336729272
  0.7507717475202074  0.2492281946387195  0.0000000246841451
  0.2492279879202902  0.7507717285889182 -0.0000000076289216
  0.7507722056222127  0.7507716157228689 -0.0000002084145436
  0.2491396392996065  0.2491361574886898  0.5000003903414215
  0.7508597693812961  0.2491390738756594  0.5000000299134089
  0.2491339195158517  0.7508642263406371  0.5000001906125338
  0.7508659159698680  0.7508619400265153  0.4999998984681339
  0.2516519217692569 -0.0000004010499596 -0.0000001228784298
  0.7483481490231532 -0.0000004565383610 -0.0000003053543169
  0.2545428792550962  0.5000001643338250  0.0000013484764268
  0.7454581094678265  0.5000003262341255  0.0000005650108248
  0.2545442152260265 -0.0000024397673573  0.5000004062079840
  0.7454556567020225 -0.0000029808152456  0.4999999860665954
  0.2648687240197019  0.5000019137175907  0.4999993470368377
  0.7351403264833763  0.5000011270497646  0.5000003798037639
  0.2514998983464604  0.2515012334210172  0.2515003755420102
  0.7484999465103735  0.2515003736458027  0.2514996284388910
  0.2515013441899778  0.7484991086629748  0.2515014550907990
  0.7484988426115040  0.7484993920826341  0.2515003569925285
  0.2514997682567928  0.2515005351341831  0.7485002424125411
  0.7485003109027422  0.2515000044947032  0.7485001769243217
  0.2515008579425919  0.7484992850781734  0.7484987116188051
  0.7484994663002730  0.7484998512867944  0.7484991481965206
 -0.0000001457451888 -0.0000002000248730  0.2516525377935256
  0.4999998818351381 -0.0000028511510888  0.2545432193467216
  0.0000006818557050  0.5000002666790798  0.2545431760418891
  0.4999989624951297  0.5000014260890652  0.2648718584607042
  0.0000003552165821 -0.0000003006850425  0.7483472461928575
  0.5000002608753689 -0.0000028305248268  0.7454567765858102
  0.0000013468164456  0.4999999170522539  0.7454573109033259
  0.4999996084193585  0.5000011204464446  0.7351327253523817
  0.0000002520847614  0.2516519335692302 -0.0000000425899642
  0.5000001660702029  0.2545459611168618  0.0000008692441968
  0.0000001576206646  0.7483480498765807 -0.0000003754090082
  0.5000001735824754  0.7454537762969382  0.0000000812407773
  0.0000012147187142  0.2545433558772783  0.5000000815074187
  0.4999995711748627  0.2648577103275028  0.4999995030544722
  0.0000007567030748  0.7454574008997383  0.5000001093178180
  0.4999987272462897  0.7351203926755711  0.4999988290392139
  0.4999933235836643  0.5000160468946719  0.4999960373674228

  0.00000000E+00  0.00000000E+00  0.00000000E+00
  0.00000000E+00  0.00000000E+00  0.00000000E+00
  0.00000000E+00  0.00000000E+00  0.00000000E+00
  0.00000000E+00  0.00000000E+00  0.00000000E+00
  0.00000000E+00  0.00000000E+00  0.00000000E+00
  0.00000000E+00  0.00000000E+00  0.00000000E+00
  0.00000000E+00  0.00000000E+00  0.00000000E+00
  0.00000000E+00  0.00000000E+00  0.00000000E+00
  0.00000000E+00  0.00000000E+00  0.00000000E+00
  0.00000000E+00  0.00000000E+00  0.00000000E+00
  0.00000000E+00  0.00000000E+00  0.00000000E+00
  0.00000000E+00  0.00000000E+00  0.00000000E+00
  0.00000000E+00  0.00000000E+00  0.00000000E+00
  0.00000000E+00  0.00000000E+00  0.00000000E+00
  0.00000000E+00  0.00000000E+00  0.00000000E+00
  0.00000000E+00  0.00000000E+00  0.00000000E+00
  0.00000000E+00  0.00000000E+00  0.00000000E+00
  0.00000000E+00  0.00000000E+00  0.00000000E+00
  0.00000000E+00  0.00000000E+00  0.00000000E+00
  0.00000000E+00  0.00000000E+00  0.00000000E+00
  0.00000000E+00  0.00000000E+00  0.00000000E+00
  0.00000000E+00  0.00000000E+00  0.00000000E+00
  0.00000000E+00  0.00000000E+00  0.00000000E+00
  0.00000000E+00  0.00000000E+00  0.00000000E+00
  0.00000000E+00  0.00000000E+00  0.00000000E+00
  0.00000000E+00  0.00000000E+00  0.00000000E+00
  0.00000000E+00  0.00000000E+00  0.00000000E+00
  0.00000000E+00  0.00000000E+00  0.00000000E+00
  0.00000000E+00  0.00000000E+00  0.00000000E+00
  0.00000000E+00  0.00000000E+00  0.00000000E+00
  0.00000000E+00  0.00000000E+00  0.00000000E+00
  0.00000000E+00  0.00000000E+00  0.00000000E+00
  0.00000000E+00  0.00000000E+00  0.00000000E+00
  0.00000000E+00  0.00000000E+00  0.00000000E+00
  0.00000000E+00  0.00000000E+00  0.00000000E+00
  0.00000000E+00  0.00000000E+00  0.00000000E+00
  0.00000000E+00  0.00000000E+00  0.00000000E+00
  0.00000000E+00  0.00000000E+00  0.00000000E+00
  0.00000000E+00  0.00000000E+00  0.00000000E+00
  0.00000000E+00  0.00000000E+00  0.00000000E+00
  0.00000000E+00  0.00000000E+00  0.00000000E+00
  0.00000000E+00  0.00000000E+00  0.00000000E+00
  0.00000000E+00  0.00000000E+00  0.00000000E+00
  0.00000000E+00  0.00000000E+00  0.00000000E+00
  0.00000000E+00  0.00000000E+00  0.00000000E+00
  0.00000000E+00  0.00000000E+00  0.00000000E+00
  0.00000000E+00  0.00000000E+00  0.00000000E+00
  0.00000000E+00  0.00000000E+00  0.00000000E+00
  0.00000000E+00  0.00000000E+00  0.00000000E+00
  0.00000000E+00  0.00000000E+00  0.00000000E+00
  0.00000000E+00  0.00000000E+00  0.00000000E+00
  0.00000000E+00  0.00000000E+00  0.00000000E+00
  0.00000000E+00  0.00000000E+00  0.00000000E+00
  0.00000000E+00  0.00000000E+00  0.00000000E+00
  0.00000000E+00  0.00000000E+00  0.00000000E+00
  0.00000000E+00  0.00000000E+00  0.00000000E+00
  0.00000000E+00  0.00000000E+00  0.00000000E+00
  0.00000000E+00  0.00000000E+00  0.00000000E+00
  0.00000000E+00  0.00000000E+00  0.00000000E+00
  0.00000000E+00  0.00000000E+00  0.00000000E+00
  0.00000000E+00  0.00000000E+00  0.00000000E+00
  0.00000000E+00  0.00000000E+00  0.00000000E+00
  0.00000000E+00  0.00000000E+00  0.00000000E+00
  0.00000000E+00  0.00000000E+00  0.00000000E+00
