generated by phonopy                    
   1.0000000000000000     
     8.3871423140825687    0.0000000000000000    0.0000000000000000
     0.0000000000000000    8.3871423140825687    0.0000000000000000
     0.0000000000000000    0.0000000000000000    8.3871423140825687
   Mg   O 
    31    32
Direct
  0.0000000000000000  0.0000000000000000  0.0000000000000000
  0.5000000000000000  0.0000000000000000  0.0000000000000000
  0.0000000000000000  0.5000000000000000  0.0000000000000000
  0.5000000000000000  0.5000000000000000  0.0000000000000000
  0.0000000000000000  0.0000000000000000  0.5000000000000000
  0.5000000000000000  0.0000000000000000  0.5000000000000000
  0.0000000000000000  0.5000000000000000  0.5000000000000000
  0.0000000000000000  0.2499425549128298  0.2499425549128298
  0.5000000000000000  0.2556055482245712  0.2556055482245712
  0.0000000000000000  0.7500574450871702  0.2499425549128298
  0.5000000000000000  0.7443944517754287  0.2556055482245712
  0.0000000000000000  0.2499425549128298  0.7500574450871702
  0.5000000000000000  0.2556055482245712  0.7443944517754287
 -0.0000000000000000  0.7500574450871702  0.7500574450871702
  0.5000000000000000  0.7443944517754287  0.7443944517754287
  0.2499425549128298  0.0000000000000000  0.2499425549128298
  0.7500574450871702  0.0000000000000000  0.2499425549128298
  0.2556055482245712  0.5000000000000000  0.2556055482245712
  0.7443944517754287  0.5000000000000000  0.2556055482245712
  0.2499425549128298  0.0000000000000000  0.7500574450871702
  0.7500574450871702 -0.0000000000000000  0.7500574450871702
  0.2556055482245712  0.5000000000000000  0.7443944517754287
  0.7443944517754287  0.5000000000000000  0.7443944517754287
  0.2499425549128298  0.2499425549128298  0.0000000000000000
  0.7500574450871702  0.2499425549128298  0.0000000000000000
  0.2499425549128298  0.7500574450871702  0.0000000000000000
  0.7500574450871702  0.7500574450871702  0.0000000000000000
  0.2556055482245712  0.2556055482245712  0.5000000000000000
  0.7443944517754287  0.2556055482245712  0.5000000000000000
  0.2556055482245712  0.7443944517754287  0.5000000000000000
  0.7443944517754287  0.7443944517754287  0.5000000000000000
  0.2501746527059525  0.0000000000000000  0.0000000000000000
  0.7498253472940474  0.0000000000000000  0.0000000000000000
  0.2498571348775983  0.5000000000000000  0.0000000000000000
  0.7501428651224017  0.5000000000000000  0.0000000000000000
  0.2498571348775983  0.0000000000000000  0.5000000000000000
  0.7501428651224017 -0.0000000000000000  0.5000000000000000
  0.2386496042225230  0.5000000000000000  0.5000000000000000
  0.7613503957774770  0.5000000000000000  0.5000000000000000
  0.2509538982443768  0.2509538982443769  0.2509538982443768
  0.7490461017556231  0.2509538982443768  0.2509538982443768
  0.2509538982443768  0.7490461017556231  0.2509538982443768
  0.7490461017556231  0.7490461017556231  0.2509538982443768
  0.2509538982443768  0.2509538982443768  0.7490461017556231
  0.7490461017556231  0.2509538982443769  0.7490461017556231
  0.2509538982443768  0.7490461017556231  0.7490461017556231
  0.7490461017556231  0.7490461017556231  0.7490461017556231
  0.0000000000000000  0.0000000000000000  0.2501746527059525
  0.5000000000000000 -0.0000000000000000  0.2498571348775983
  0.0000000000000000  0.5000000000000000  0.2498571348775983
  0.5000000000000000  0.5000000000000000  0.2386496042225230
  0.0000000000000000  0.0000000000000000  0.7498253472940474
  0.5000000000000000  0.0000000000000000  0.7501428651224017
  0.0000000000000000  0.5000000000000000  0.7501428651224017
  0.5000000000000000  0.5000000000000000  0.7613503957774770
  0.0000000000000000  0.2501746527059525  0.0000000000000000
  0.5000000000000000  0.2498571348775983  0.0000000000000000
  0.0000000000000000  0.7498253472940474  0.0000000000000000
  0.5000000000000000  0.7501428651224017  0.0000000000000000
  0.0000000000000000  0.2498571348775983  0.5000000000000000
  0.5000000000000000  0.2386496042225230  0.5000000000000000
  0.0000000000000000  0.7501428651224017  0.5000000000000000
  0.5000000000000000  0.7613503957774770  0.5000000000000000

  0.00000000E+00  0.00000000E+00  0.00000000E+00
  0.00000000E+00  0.00000000E+00  0.00000000E+00
  0.00000000E+00  0.00000000E+00  0.00000000E+00
  0.00000000E+00  0.00000000E+00  0.00000000E+00
  0.00000000E+00  0.00000000E+00  0.00000000E+00
  0.00000000E+00  0.00000000E+00  0.00000000E+00
  0.00000000E+00  0.00000000E+00  0.00000000E+00
  0.00000000E+00  0.00000000E+00  0.00000000E+00
  0.00000000E+00  0.00000000E+00  0.00000000E+00
  0.00000000E+00  0.00000000E+00  0.00000000E+00
  0.00000000E+00  0.00000000E+00  0.00000000E+00
  0.00000000E+00  0.00000000E+00  0.00000000E+00
  0.00000000E+00  0.00000000E+00  0.00000000E+00
  0.00000000E+00  0.00000000E+00  0.00000000E+00
  0.00000000E+00  0.00000000E+00  0.00000000E+00
  0.00000000E+00  0.00000000E+00  0.00000000E+00
  0.00000000E+00  0.00000000E+00  0.00000000E+00
  0.00000000E+00  0.00000000E+00  0.00000000E+00
  0.00000000E+00  0.00000000E+00  0.00000000E+00
  0.00000000E+00  0.00000000E+00  0.00000000E+00
  0.00000000E+00  0.00000000E+00  0.00000000E+00
  0.00000000E+00  0.00000000E+00  0.00000000E+00
  0.00000000E+00  0.00000000E+00  0.00000000E+00
  0.00000000E+00  0.00000000E+00  0.00000000E+00
  0.00000000E+00  0.00000000E+00  0.00000000E+00
  0.00000000E+00  0.00000000E+00  0.00000000E+00
  0.00000000E+00  0.00000000E+00  0.00000000E+00
  0.00000000E+00  0.00000000E+00  0.00000000E+00
  0.00000000E+00  0.00000000E+00  0.00000000E+00
  0.00000000E+00  0.00000000E+00  0.00000000E+00
  0.00000000E+00  0.00000000E+00  0.00000000E+00
  0.00000000E+00  0.00000000E+00  0.00000000E+00
  0.00000000E+00  0.00000000E+00  0.00000000E+00
  0.00000000E+00  0.00000000E+00  0.00000000E+00
  0.00000000E+00  0.00000000E+00  0.00000000E+00
  0.00000000E+00  0.00000000E+00  0.00000000E+00
  0.00000000E+00  0.00000000E+00  0.00000000E+00
  0.00000000E+00  0.00000000E+00  0.00000000E+00
  0.00000000E+00  0.00000000E+00  0.00000000E+00
  0.00000000E+00  0.00000000E+00  0.00000000E+00
  0.00000000E+00  0.00000000E+00  0.00000000E+00
  0.00000000E+00  0.00000000E+00  0.00000000E+00
  0.00000000E+00  0.00000000E+00  0.00000000E+00
  0.00000000E+00  0.00000000E+00  0.00000000E+00
  0.00000000E+00  0.00000000E+00  0.00000000E+00
  0.00000000E+00  0.00000000E+00  0.00000000E+00
  0.00000000E+00  0.00000000E+00  0.00000000E+00
  0.00000000E+00  0.00000000E+00  0.00000000E+00
  0.00000000E+00  0.00000000E+00  0.00000000E+00
  0.00000000E+00  0.00000000E+00  0.00000000E+00
  0.00000000E+00  0.00000000E+00  0.00000000E+00
  0.00000000E+00  0.00000000E+00  0.00000000E+00
  0.00000000E+00  0.00000000E+00  0.00000000E+00
  0.00000000E+00  0.00000000E+00  0.00000000E+00
  0.00000000E+00  0.00000000E+00  0.00000000E+00
  0.00000000E+00  0.00000000E+00  0.00000000E+00
  0.00000000E+00  0.00000000E+00  0.00000000E+00
  0.00000000E+00  0.00000000E+00  0.00000000E+00
  0.00000000E+00  0.00000000E+00  0.00000000E+00
  0.00000000E+00  0.00000000E+00  0.00000000E+00
  0.00000000E+00  0.00000000E+00  0.00000000E+00
  0.00000000E+00  0.00000000E+00  0.00000000E+00
  0.00000000E+00  0.00000000E+00  0.00000000E+00
