generated by phonopy                    
   1.0000000000000000     
     8.3871423140825687    0.0000000000000000    0.0000000000000000
     0.0000000000000000    8.3871423140825687    0.0000000000000000
     0.0000000000000000    0.0000000000000000    8.3871423140825687
   Mg   O 
    31    32
Direct
 -0.0000000000000000  0.0000000000000000 -0.0000000000000000
  0.5000000000000000  0.0000000000000000 -0.0000000000000000
 -0.0000000000000000  0.5000000000000000 -0.0000000000000000
  0.5000000000000000  0.5000000000000000 -0.0000000000000000
 -0.0000000000000000  0.0000000000000000  0.5000000000000000
  0.5000000000000000  0.0000000000000000  0.5000000000000000
 -0.0000000000000000  0.5000000000000000  0.5000000000000000
 -0.0000000000000000  0.2516742709844650  0.2516742709844650
  0.5000000000000000  0.2568134143185299  0.2568134143185299
 -0.0000000000000000  0.7483257290155348  0.2516742709844650
  0.5000000000000000  0.7431865856814699  0.2568134143185299
 -0.0000000000000000  0.2516742709844650  0.7483257290155348
  0.5000000000000000  0.2568134143185299  0.7431865856814699
 -0.0000000000000000  0.7483257290155348  0.7483257290155348
  0.5000000000000000  0.7431865856814699  0.7431865856814699
  0.2516742709844650  0.0000000000000000  0.2516742709844650
  0.7483257290155348  0.0000000000000000  0.2516742709844650
  0.2568134143185299  0.5000000000000000  0.2568134143185299
  0.7431865856814699  0.5000000000000000  0.2568134143185299
  0.2516742709844650  0.0000000000000000  0.7483257290155348
  0.7483257290155348  0.0000000000000000  0.7483257290155348
  0.2568134143185299  0.5000000000000000  0.7431865856814699
  0.7431865856814699  0.5000000000000000  0.7431865856814699
  0.2516742709844650  0.2516742709844650 -0.0000000000000000
  0.7483257290155348  0.2516742709844650 -0.0000000000000000
  0.2516742709844650  0.7483257290155348 -0.0000000000000000
  0.7483257290155348  0.7483257290155348 -0.0000000000000000
  0.2568134143185299  0.2568134143185299  0.5000000000000000
  0.7431865856814699  0.2568134143185299  0.5000000000000000
  0.2568134143185299  0.7431865856814699  0.5000000000000000
  0.7431865856814699  0.7431865856814699  0.5000000000000000
  0.2496207323611758  0.0000000000000000 -0.0000000000000000
  0.7503792676388242  0.0000000000000000 -0.0000000000000000
  0.2477117913423244  0.5000000000000000 -0.0000000000000000
  0.7522882086576753  0.5000000000000000 -0.0000000000000000
  0.2477117913423244  0.0000000000000000  0.5000000000000000
  0.7522882086576753  0.0000000000000000  0.5000000000000000
  0.2351208981263650  0.5000000000000000  0.5000000000000000
  0.7648791018736352  0.5000000000000000  0.5000000000000000
  0.2504443896998821  0.2504443896998821  0.2504443896998821
  0.7495556103001179  0.2504443896998821  0.2504443896998821
  0.2504443896998821  0.7495556103001179  0.2504443896998821
  0.7495556103001179  0.7495556103001179  0.2504443896998821
  0.2504443896998821  0.2504443896998821  0.7495556103001179
  0.7495556103001179  0.2504443896998821  0.7495556103001179
  0.2504443896998821  0.7495556103001179  0.7495556103001179
  0.7495556103001179  0.7495556103001179  0.7495556103001179
 -0.0000000000000000  0.0000000000000000  0.2496207323611758
  0.5000000000000000  0.0000000000000000  0.2477117913423244
 -0.0000000000000000  0.5000000000000000  0.2477117913423244
  0.5000000000000000  0.5000000000000000  0.2351208981263650
 -0.0000000000000000  0.0000000000000000  0.7503792676388242
  0.5000000000000000  0.0000000000000000  0.7522882086576753
 -0.0000000000000000  0.5000000000000000  0.7522882086576753
  0.5000000000000000  0.5000000000000000  0.7648791018736352
 -0.0000000000000000  0.2496207323611758 -0.0000000000000000
  0.5000000000000000  0.2477117913423244 -0.0000000000000000
 -0.0000000000000000  0.7503792676388242 -0.0000000000000000
  0.5000000000000000  0.7522882086576753 -0.0000000000000000
 -0.0000000000000000  0.2477117913423244  0.5000000000000000
  0.5000000000000000  0.2351208981263650  0.5000000000000000
 -0.0000000000000000  0.7522882086576753  0.5000000000000000
  0.5000000000000000  0.7648791018736352  0.5000000000000000

  0.00000000E+00  0.00000000E+00  0.00000000E+00
  0.00000000E+00  0.00000000E+00  0.00000000E+00
  0.00000000E+00  0.00000000E+00  0.00000000E+00
  0.00000000E+00  0.00000000E+00  0.00000000E+00
  0.00000000E+00  0.00000000E+00  0.00000000E+00
  0.00000000E+00  0.00000000E+00  0.00000000E+00
  0.00000000E+00  0.00000000E+00  0.00000000E+00
  0.00000000E+00  0.00000000E+00  0.00000000E+00
  0.00000000E+00  0.00000000E+00  0.00000000E+00
  0.00000000E+00  0.00000000E+00  0.00000000E+00
  0.00000000E+00  0.00000000E+00  0.00000000E+00
  0.00000000E+00  0.00000000E+00  0.00000000E+00
  0.00000000E+00  0.00000000E+00  0.00000000E+00
  0.00000000E+00  0.00000000E+00  0.00000000E+00
  0.00000000E+00  0.00000000E+00  0.00000000E+00
  0.00000000E+00  0.00000000E+00  0.00000000E+00
  0.00000000E+00  0.00000000E+00  0.00000000E+00
  0.00000000E+00  0.00000000E+00  0.00000000E+00
  0.00000000E+00  0.00000000E+00  0.00000000E+00
  0.00000000E+00  0.00000000E+00  0.00000000E+00
  0.00000000E+00  0.00000000E+00  0.00000000E+00
  0.00000000E+00  0.00000000E+00  0.00000000E+00
  0.00000000E+00  0.00000000E+00  0.00000000E+00
  0.00000000E+00  0.00000000E+00  0.00000000E+00
  0.00000000E+00  0.00000000E+00  0.00000000E+00
  0.00000000E+00  0.00000000E+00  0.00000000E+00
  0.00000000E+00  0.00000000E+00  0.00000000E+00
  0.00000000E+00  0.00000000E+00  0.00000000E+00
  0.00000000E+00  0.00000000E+00  0.00000000E+00
  0.00000000E+00  0.00000000E+00  0.00000000E+00
  0.00000000E+00  0.00000000E+00  0.00000000E+00
  0.00000000E+00  0.00000000E+00  0.00000000E+00
  0.00000000E+00  0.00000000E+00  0.00000000E+00
  0.00000000E+00  0.00000000E+00  0.00000000E+00
  0.00000000E+00  0.00000000E+00  0.00000000E+00
  0.00000000E+00  0.00000000E+00  0.00000000E+00
  0.00000000E+00  0.00000000E+00  0.00000000E+00
  0.00000000E+00  0.00000000E+00  0.00000000E+00
  0.00000000E+00  0.00000000E+00  0.00000000E+00
  0.00000000E+00  0.00000000E+00  0.00000000E+00
  0.00000000E+00  0.00000000E+00  0.00000000E+00
  0.00000000E+00  0.00000000E+00  0.00000000E+00
  0.00000000E+00  0.00000000E+00  0.00000000E+00
  0.00000000E+00  0.00000000E+00  0.00000000E+00
  0.00000000E+00  0.00000000E+00  0.00000000E+00
  0.00000000E+00  0.00000000E+00  0.00000000E+00
  0.00000000E+00  0.00000000E+00  0.00000000E+00
  0.00000000E+00  0.00000000E+00  0.00000000E+00
  0.00000000E+00  0.00000000E+00  0.00000000E+00
  0.00000000E+00  0.00000000E+00  0.00000000E+00
  0.00000000E+00  0.00000000E+00  0.00000000E+00
  0.00000000E+00  0.00000000E+00  0.00000000E+00
  0.00000000E+00  0.00000000E+00  0.00000000E+00
  0.00000000E+00  0.00000000E+00  0.00000000E+00
  0.00000000E+00  0.00000000E+00  0.00000000E+00
  0.00000000E+00  0.00000000E+00  0.00000000E+00
  0.00000000E+00  0.00000000E+00  0.00000000E+00
  0.00000000E+00  0.00000000E+00  0.00000000E+00
  0.00000000E+00  0.00000000E+00  0.00000000E+00
  0.00000000E+00  0.00000000E+00  0.00000000E+00
  0.00000000E+00  0.00000000E+00  0.00000000E+00
  0.00000000E+00  0.00000000E+00  0.00000000E+00
  0.00000000E+00  0.00000000E+00  0.00000000E+00
