generated by phonopy                    
   1.0000000000000000     
     8.3871423140825687    0.0000000000000000    0.0000000000000000
     0.0000000000000000    8.3871423140825687    0.0000000000000000
     0.0000000000000000    0.0000000000000000    8.3871423140825687
   Mg   O 
    31    33
Direct
 -0.0000118646456948  0.0001068334984862 -0.0001334463771985
  0.4999762814344945  0.0000280716312349  1.0000312954356008
  1.0000076083033758  0.5000918918563457  0.9999552882955569
  0.4999942043482689  0.4999772407377806  1.0002717544506412
  1.0000009293493612  0.0000499155146327  0.4998379449409125
  0.4999827304177284  1.0002430361865700  0.5000001346351486
  1.0001781488555832  0.5000097292943194  0.4998850022171825
  0.9999946895472664  0.2497080385103556  0.2495496135090376
  0.4999737691213477  0.2509963373002954  0.2509145157182961
  0.9999923288823112  0.7503966307764192  0.2495349147716484
  0.4999673893464058  0.7488586669389100  0.2509416564346996
  0.9999943829466006  0.2497015453839885  0.7502255959304399
  0.4999729550922008  0.2505358062225283  0.7492457641888909
  0.9999920884423229  0.7504059899054776  0.7502389671848175
  0.4999667075546644  0.7492947207362832  0.7492277575296979
  0.2495726609833682  0.0000354543887171  0.2501485133497685
  0.7503850494399910  0.0000359614801349  0.2501466508527647
  0.2485064837810157  0.4999788021032177  0.2539224494835925
  0.7515242341504288  0.4999766251727566  0.2538948256641245
  0.2495427539129358  0.0000353831542579  0.7496604876492960
  0.7504141000835816  0.0000359070006802  0.7496618400470894
  0.2481121539749871  0.4999767714838065  0.7460976034353006
  0.7519181921265832  0.4999745434429522  0.7461229033063439
  0.2495659739210812  0.2502978186157367 -0.0000087411557194
  0.7503989520968666  0.2502975255778896 -0.0000090438589250
  0.2495501294219627  0.7498216120322018 -0.0000103489702133
  0.7504084413967439  0.7498209253924588 -0.0000104007544063
  0.2483262098620101  0.2539020708101374  0.4998788457561777
  0.7517059024224210  0.2538804381684822  0.4998776922419840
  0.2482938911083260  0.7460823685028091  0.4998809188607715
  0.7517290231105941  0.7460945921656371  0.4998800708167299
  0.2518803779581003  0.0001011202108587 -0.0000831615487769
  0.7480504510520251  0.0001049074456378 -0.0000840558827532
  0.2553340752012008  0.5001526612321908  0.9999644514940060
  0.7446174605997308  0.5001492922927927  0.9999624585542591
  0.2553818319245556  0.0000409670880276  0.5000282786874795
  0.7445584300875455  0.0000587837646472  0.5000278295942971
  0.2324733016566422  0.4999587928717447  0.4997818636116099
  0.7680153131007108  0.4999284218473427  0.4997718330237566
  0.2515404612021745  0.2508269032543609  0.2508727026380845
  0.7483807917126467  0.2508432896734705  0.2508581868578983
  0.2516013388120595  0.7491038836634659  0.2509495374658684
  0.7483105842300316  0.7490861001508288  0.2509320419311489
  0.2516176555757448  0.2508934628000157  0.7490805795918247
  0.7483037853299062  0.2509111177205949  0.7490912620940063
  0.2517055299581990  0.7490314477477457  0.7490092412520226
  0.7482058184793666  0.7490138087732919  0.7490273737772924
  0.9999602313964039  1.0000369720478337  0.2501898443986346
  0.4999398838143144  0.0000143747702986  0.2541332321621654
  1.0000272754425448  0.5001030401949847  0.2480579966374911
  0.4999378667001161  0.4996932666190274  0.2674310841630124
  0.9999613661881223  1.0000350331864325  0.7495624811128558
  0.4999379311407207 -0.0000040080158069  0.7459576130277371
  1.0000253778831367  0.5001128444940443  0.7517698242507134
  0.4999445543640211  0.4995596329439486  0.7338134836854409
  0.9999592245734746  0.2505886502438029 -0.0001151514301851
  0.4999618826114131  0.2540335993338452 -0.0000044678363465
  0.9999551522505346  0.7499700410044713 -0.0001219724248746
  0.4999534929344341  0.7460042706391290 -0.0000290247999146
  1.0000292133511566  0.2481760335106648  0.4999706318465835
  0.5000450851036835  0.2666575345606218  0.4997330602072252
  1.0000275487470252  0.7519176974668861  0.4999805391627630
  0.5000753506720875  0.7325416000327453  0.4997893539478409
  0.5003448551570050  0.4997032024445988  0.5018300231567591

  0.00000000E+00  0.00000000E+00  0.00000000E+00
  0.00000000E+00  0.00000000E+00  0.00000000E+00
  0.00000000E+00  0.00000000E+00  0.00000000E+00
  0.00000000E+00  0.00000000E+00  0.00000000E+00
  0.00000000E+00  0.00000000E+00  0.00000000E+00
  0.00000000E+00  0.00000000E+00  0.00000000E+00
  0.00000000E+00  0.00000000E+00  0.00000000E+00
  0.00000000E+00  0.00000000E+00  0.00000000E+00
  0.00000000E+00  0.00000000E+00  0.00000000E+00
  0.00000000E+00  0.00000000E+00  0.00000000E+00
  0.00000000E+00  0.00000000E+00  0.00000000E+00
  0.00000000E+00  0.00000000E+00  0.00000000E+00
  0.00000000E+00  0.00000000E+00  0.00000000E+00
  0.00000000E+00  0.00000000E+00  0.00000000E+00
  0.00000000E+00  0.00000000E+00  0.00000000E+00
  0.00000000E+00  0.00000000E+00  0.00000000E+00
  0.00000000E+00  0.00000000E+00  0.00000000E+00
  0.00000000E+00  0.00000000E+00  0.00000000E+00
  0.00000000E+00  0.00000000E+00  0.00000000E+00
  0.00000000E+00  0.00000000E+00  0.00000000E+00
  0.00000000E+00  0.00000000E+00  0.00000000E+00
  0.00000000E+00  0.00000000E+00  0.00000000E+00
  0.00000000E+00  0.00000000E+00  0.00000000E+00
  0.00000000E+00  0.00000000E+00  0.00000000E+00
  0.00000000E+00  0.00000000E+00  0.00000000E+00
  0.00000000E+00  0.00000000E+00  0.00000000E+00
  0.00000000E+00  0.00000000E+00  0.00000000E+00
  0.00000000E+00  0.00000000E+00  0.00000000E+00
  0.00000000E+00  0.00000000E+00  0.00000000E+00
  0.00000000E+00  0.00000000E+00  0.00000000E+00
  0.00000000E+00  0.00000000E+00  0.00000000E+00
  0.00000000E+00  0.00000000E+00  0.00000000E+00
  0.00000000E+00  0.00000000E+00  0.00000000E+00
  0.00000000E+00  0.00000000E+00  0.00000000E+00
  0.00000000E+00  0.00000000E+00  0.00000000E+00
  0.00000000E+00  0.00000000E+00  0.00000000E+00
  0.00000000E+00  0.00000000E+00  0.00000000E+00
  0.00000000E+00  0.00000000E+00  0.00000000E+00
  0.00000000E+00  0.00000000E+00  0.00000000E+00
  0.00000000E+00  0.00000000E+00  0.00000000E+00
  0.00000000E+00  0.00000000E+00  0.00000000E+00
  0.00000000E+00  0.00000000E+00  0.00000000E+00
  0.00000000E+00  0.00000000E+00  0.00000000E+00
  0.00000000E+00  0.00000000E+00  0.00000000E+00
  0.00000000E+00  0.00000000E+00  0.00000000E+00
  0.00000000E+00  0.00000000E+00  0.00000000E+00
  0.00000000E+00  0.00000000E+00  0.00000000E+00
  0.00000000E+00  0.00000000E+00  0.00000000E+00
  0.00000000E+00  0.00000000E+00  0.00000000E+00
  0.00000000E+00  0.00000000E+00  0.00000000E+00
  0.00000000E+00  0.00000000E+00  0.00000000E+00
  0.00000000E+00  0.00000000E+00  0.00000000E+00
  0.00000000E+00  0.00000000E+00  0.00000000E+00
  0.00000000E+00  0.00000000E+00  0.00000000E+00
  0.00000000E+00  0.00000000E+00  0.00000000E+00
  0.00000000E+00  0.00000000E+00  0.00000000E+00
  0.00000000E+00  0.00000000E+00  0.00000000E+00
  0.00000000E+00  0.00000000E+00  0.00000000E+00
  0.00000000E+00  0.00000000E+00  0.00000000E+00
  0.00000000E+00  0.00000000E+00  0.00000000E+00
  0.00000000E+00  0.00000000E+00  0.00000000E+00
  0.00000000E+00  0.00000000E+00  0.00000000E+00
  0.00000000E+00  0.00000000E+00  0.00000000E+00
  0.00000000E+00  0.00000000E+00  0.00000000E+00
