generated by phonopy                    
   1.0000000000000000     
     8.3871423140825687    0.0000000000000000    0.0000000000000000
     0.0000000000000000    8.3871423140825687    0.0000000000000000
     0.0000000000000000    0.0000000000000000    8.3871423140825687
   Mg   O 
    32    33
Direct
  0.9979938050273650  0.9980029269734462  0.0009926306115171
  0.4983936887885183  0.9990751429351759  0.9976463453632201
  0.9990868597873191  0.4983750205271287  0.9976843113234358
  0.4984803369440452  0.4984984266927585  0.9892663944383738
  0.9993976794109859  0.9994095079300612  0.5021711245830777
  0.4981911570456951  0.9961727367755694  0.5061014309326322
  0.9962781896357807  0.4981704996151243  0.5060812933901421
  0.5005782081454182  0.5006736282085690  0.5154854938340442
  0.9962505888414483  0.2438857809106406  0.2518469852891811
  0.5007043148041769  0.2342542438303327  0.2493133181737500
  0.9991008183262190  0.7523221813497011  0.2516496165783001
  0.4984683797499453  0.7608427598031836  0.2515302931237517
  0.9994308043090796  0.2479031126793491  0.7506160312663416
  0.4981664639883335  0.2439188094102415  0.7536808994705794
  0.9979518633699678  0.7490564196922005  0.7520760038065412
  0.4983935835605423  0.7522960173038731  0.7508696139871351
  0.2439001081978679  0.9960913497512586  0.2518425518502296
  0.7523030730754056  0.9990673950694662  0.2516479750589862
  0.2342694168259402  0.5008039346110751  0.2493118066822735
  0.7608399174555330  0.4984916469118068  0.2515293664151387
  0.2478998950310628  0.9994271844536179  0.7506276432183759
  0.7490254863302709  0.9979894544681061  0.7520403050704652
  0.2439594328394380  0.4981496235372204  0.7537464955396977
  0.7522461980232545  0.4983721874707017  0.7508960056447734
  0.2460980508401233  0.2460782457743011  0.0042019140018548
  0.7503624079513136  0.2504793558258619  0.9996270963654672
  0.2504844040436584  0.7503728586683265  0.9996219477804437
  0.7446654863141695  0.7446714468777920  0.0053561171608153
  0.2559453755317608  0.2560204404610203  0.4939302262557543
  0.7458505490414888  0.2460857581951462  0.5039191180525245
  0.2460687083513278  0.7458087358426617  0.5039588492189587
  0.7503478287750539  0.7503533314845625  0.4995152784297365
  0.2473054524211896  0.9975970837846417  0.0000226999165788
  0.7490713674854061 -0.0000110873991281  0.0009698082707584
  0.2474514148419298  0.4985419005082907  0.0010837785069571
  0.7610982154862745  0.4958209121887713  0.9888535955662270
  0.2478734520717065  0.9960537965256194  0.5021624145239366
  0.7499939331322836  0.9976219713455220  0.5027256255228416
  0.2312426856691634  0.5040487183216279  0.5187844637868047
  0.7488718695340196  0.4985154019489311  0.5025389385889953
  0.2311260118137275  0.2310825099590213  0.2460599157532895
  0.7489375119151251  0.2474316584988130  0.2514845702317708
  0.2474052082382736  0.7489385184272608  0.2514910447665240
  0.7611393921495430  0.7611610309847617  0.2541737026330161
  0.2478964327644294  0.2478754693892778  0.7538992417135599
  0.7499821067184791  0.2472905212291355  0.7523624092307433
  0.2472467121091846  0.7499441160873196  0.7523678734835935
  0.7490171518708414  0.7489950566859053  0.7500220728746290
  0.9972701126954765  0.9972735410110360  0.2515137259056500
  0.4986704898265116  0.9977281566522284  0.2513370186589706
  0.9977815974863150  0.4986688723631101  0.2513552990717855
  0.5564341050279807  0.5564530508072763  0.1937866954056564
  0.9984047331002945  0.9984095703789785  0.7516384161711890
  0.4985329737600063  0.9972890999806092  0.7526786704118172
  0.9972767869267937  0.4985595240613679  0.7526907798668149
  0.4986529490040805  0.4986645097230717  0.7522093173730121
  0.9976138436367630  0.2472782750383585  0.0000294268063756
  0.4985395087583248  0.2474486792886549  0.0010607079584784
 -0.0000121931275475  0.7490236461603904  0.0010020596590524
  0.4958388673016897  0.7611326222737395  0.9888336627794482
  0.9960987429704130  0.2478708314154372  0.5021489044561226
  0.5039643078416491  0.2312232269510194  0.5187549631013776
  0.9976310126637884  0.7499483155191932  0.5027967738130616
  0.4985037631707474  0.7488935353957608  0.5025630816872749
  0.4270064003726217  0.4271068004537178  0.3228138585861420

  0.00000000E+00  0.00000000E+00  0.00000000E+00
  0.00000000E+00  0.00000000E+00  0.00000000E+00
  0.00000000E+00  0.00000000E+00  0.00000000E+00
  0.00000000E+00  0.00000000E+00  0.00000000E+00
  0.00000000E+00  0.00000000E+00  0.00000000E+00
  0.00000000E+00  0.00000000E+00  0.00000000E+00
  0.00000000E+00  0.00000000E+00  0.00000000E+00
  0.00000000E+00  0.00000000E+00  0.00000000E+00
  0.00000000E+00  0.00000000E+00  0.00000000E+00
  0.00000000E+00  0.00000000E+00  0.00000000E+00
  0.00000000E+00  0.00000000E+00  0.00000000E+00
  0.00000000E+00  0.00000000E+00  0.00000000E+00
  0.00000000E+00  0.00000000E+00  0.00000000E+00
  0.00000000E+00  0.00000000E+00  0.00000000E+00
  0.00000000E+00  0.00000000E+00  0.00000000E+00
  0.00000000E+00  0.00000000E+00  0.00000000E+00
  0.00000000E+00  0.00000000E+00  0.00000000E+00
  0.00000000E+00  0.00000000E+00  0.00000000E+00
  0.00000000E+00  0.00000000E+00  0.00000000E+00
  0.00000000E+00  0.00000000E+00  0.00000000E+00
  0.00000000E+00  0.00000000E+00  0.00000000E+00
  0.00000000E+00  0.00000000E+00  0.00000000E+00
  0.00000000E+00  0.00000000E+00  0.00000000E+00
  0.00000000E+00  0.00000000E+00  0.00000000E+00
  0.00000000E+00  0.00000000E+00  0.00000000E+00
  0.00000000E+00  0.00000000E+00  0.00000000E+00
  0.00000000E+00  0.00000000E+00  0.00000000E+00
  0.00000000E+00  0.00000000E+00  0.00000000E+00
  0.00000000E+00  0.00000000E+00  0.00000000E+00
  0.00000000E+00  0.00000000E+00  0.00000000E+00
  0.00000000E+00  0.00000000E+00  0.00000000E+00
  0.00000000E+00  0.00000000E+00  0.00000000E+00
  0.00000000E+00  0.00000000E+00  0.00000000E+00
  0.00000000E+00  0.00000000E+00  0.00000000E+00
  0.00000000E+00  0.00000000E+00  0.00000000E+00
  0.00000000E+00  0.00000000E+00  0.00000000E+00
  0.00000000E+00  0.00000000E+00  0.00000000E+00
  0.00000000E+00  0.00000000E+00  0.00000000E+00
  0.00000000E+00  0.00000000E+00  0.00000000E+00
  0.00000000E+00  0.00000000E+00  0.00000000E+00
  0.00000000E+00  0.00000000E+00  0.00000000E+00
  0.00000000E+00  0.00000000E+00  0.00000000E+00
  0.00000000E+00  0.00000000E+00  0.00000000E+00
  0.00000000E+00  0.00000000E+00  0.00000000E+00
  0.00000000E+00  0.00000000E+00  0.00000000E+00
  0.00000000E+00  0.00000000E+00  0.00000000E+00
  0.00000000E+00  0.00000000E+00  0.00000000E+00
  0.00000000E+00  0.00000000E+00  0.00000000E+00
  0.00000000E+00  0.00000000E+00  0.00000000E+00
  0.00000000E+00  0.00000000E+00  0.00000000E+00
  0.00000000E+00  0.00000000E+00  0.00000000E+00
  0.00000000E+00  0.00000000E+00  0.00000000E+00
  0.00000000E+00  0.00000000E+00  0.00000000E+00
  0.00000000E+00  0.00000000E+00  0.00000000E+00
  0.00000000E+00  0.00000000E+00  0.00000000E+00
  0.00000000E+00  0.00000000E+00  0.00000000E+00
  0.00000000E+00  0.00000000E+00  0.00000000E+00
  0.00000000E+00  0.00000000E+00  0.00000000E+00
  0.00000000E+00  0.00000000E+00  0.00000000E+00
  0.00000000E+00  0.00000000E+00  0.00000000E+00
  0.00000000E+00  0.00000000E+00  0.00000000E+00
  0.00000000E+00  0.00000000E+00  0.00000000E+00
  0.00000000E+00  0.00000000E+00  0.00000000E+00
  0.00000000E+00  0.00000000E+00  0.00000000E+00
  0.00000000E+00  0.00000000E+00  0.00000000E+00
