generated by phonopy                    
   1.0000000000000000     
     8.3871423140825687    0.0000000000000000    0.0000000000000000
     0.0000000000000000    8.3871423140825687    0.0000000000000000
     0.0000000000000000    0.0000000000000000    8.3871423140825687
   Mg   O 
    33    32
Direct
  0.3750000000000000  0.3750000000000000  0.3750000000000000
  0.9998741050792943  0.9998741050792943  0.9998741050792943
  0.5006618602974112  0.9939912628200770  0.9939912628200770
  0.9939912628200770  0.5006618602974112  0.9939912628200770
  0.5007794301961811  0.5007794301961811  1.0000125676479412
  0.9939912628200770  0.9939912628200770  0.5006618602974112
  0.5007794301961811  1.0000125676479412  0.5007794301961811
  1.0000125676479412  0.5007794301961811  0.5007794301961811
  0.5321854523566792  0.5321854523566792  0.5321854523566792
  1.0000125676479412  0.2492205698038118  0.2492205698038118
  0.5321854523566792  0.2178145476433208  0.2178145476433208
  0.9939912628200770  0.7560087371799230  0.2493381397025889
  0.5007794301961811  0.7499874323520582  0.2492205698038118
  0.9939912628200770  0.2493381397025889  0.7560087371799230
  0.5007794301961811  0.2492205698038118  0.7499874323520582
  0.9998741050792943  0.7501258949207057  0.7501258949207057
  0.5006618602974112  0.7560087371799230  0.7560087371799230
  0.2492205698038118  1.0000125676479412  0.2492205698038118
  0.7560087371799230  0.9939912628200770  0.2493381397025889
  0.2178145476433208  0.5321854523566792  0.2178145476433208
  0.7499874323520582  0.5007794301961811  0.2492205698038118
  0.2493381397025889  0.9939912628200770  0.7560087371799230
  0.7501258949207057  0.9998741050792943  0.7501258949207057
  0.2492205698038118  0.5007794301961811  0.7499874323520582
  0.7560087371799230  0.5006618602974112  0.7560087371799230
  0.2492205698038118  0.2492205698038118  1.0000125676479412
  0.7560087371799230  0.2493381397025889  0.9939912628200770
  0.2493381397025889  0.7560087371799230  0.9939912628200770
  0.7501258949207057  0.7501258949207057  0.9998741050792943
  0.2178145476433208  0.2178145476433208  0.5321854523566792
  0.7499874323520582  0.2492205698038118  0.5007794301961811
  0.2492205698038118  0.7499874323520582  0.5007794301961811
  0.7560087371799230  0.7560087371799230  0.5006618602974112
  0.2499550249042686  0.9989018760478694  0.9989018760478694
  0.7508503472981100  0.9991496527018900  0.9991496527018900
  0.2451588109962869  0.5048411890037131  0.9904499509209262
  0.7510981239521306  0.5000449750957313  0.9989018760478694
  0.2451588109962869  0.9904499509209262  0.5048411890037131
  0.7510981239521306  0.9989018760478694  0.5000449750957313
  0.2432664302372848  0.5067335697627153  0.5067335697627153
  0.7595500490790738  0.5048411890037131  0.5048411890037131
  0.2432664302372848  0.2432664302372848  0.2432664302372848
  0.7595500490790738  0.2451588109962869  0.2451588109962869
  0.2451588109962869  0.7595500490790738  0.2451588109962869
  0.7510981239521306  0.7510981239521306  0.2499550249042686
  0.2451588109962869  0.2451588109962869  0.7595500490790738
  0.7510981239521306  0.2499550249042686  0.7510981239521306
  0.2499550249042686  0.7510981239521306  0.7510981239521306
  0.7508503472981100  0.7508503472981100  0.7508503472981100
  0.9989018760478694  0.9989018760478694  0.2499550249042686
  0.5048411890037131  0.9904499509209262  0.2451588109962869
  0.9904499509209262  0.5048411890037131  0.2451588109962869
  0.5067335697627153  0.5067335697627153  0.2432664302372848
  0.9991496527018900  0.9991496527018900  0.7508503472981100
  0.5000449750957313  0.9989018760478694  0.7510981239521306
  0.9989018760478694  0.5000449750957313  0.7510981239521306
  0.5048411890037131  0.5048411890037131  0.7595500490790738
  0.9989018760478694  0.2499550249042686  0.9989018760478694
  0.5048411890037131  0.2451588109962869  0.9904499509209262
  0.9991496527018900  0.7508503472981100  0.9991496527018900
  0.5000449750957313  0.7510981239521306  0.9989018760478694
  0.9904499509209262  0.2451588109962869  0.5048411890037131
  0.5067335697627153  0.2432664302372848  0.5067335697627153
  0.9989018760478694  0.7510981239521306  0.5000449750957313
  0.5048411890037131  0.7595500490790738  0.5048411890037131

  0.00000000E+00  0.00000000E+00  0.00000000E+00
  0.00000000E+00  0.00000000E+00  0.00000000E+00
  0.00000000E+00  0.00000000E+00  0.00000000E+00
  0.00000000E+00  0.00000000E+00  0.00000000E+00
  0.00000000E+00  0.00000000E+00  0.00000000E+00
  0.00000000E+00  0.00000000E+00  0.00000000E+00
  0.00000000E+00  0.00000000E+00  0.00000000E+00
  0.00000000E+00  0.00000000E+00  0.00000000E+00
  0.00000000E+00  0.00000000E+00  0.00000000E+00
  0.00000000E+00  0.00000000E+00  0.00000000E+00
  0.00000000E+00  0.00000000E+00  0.00000000E+00
  0.00000000E+00  0.00000000E+00  0.00000000E+00
  0.00000000E+00  0.00000000E+00  0.00000000E+00
  0.00000000E+00  0.00000000E+00  0.00000000E+00
  0.00000000E+00  0.00000000E+00  0.00000000E+00
  0.00000000E+00  0.00000000E+00  0.00000000E+00
  0.00000000E+00  0.00000000E+00  0.00000000E+00
  0.00000000E+00  0.00000000E+00  0.00000000E+00
  0.00000000E+00  0.00000000E+00  0.00000000E+00
  0.00000000E+00  0.00000000E+00  0.00000000E+00
  0.00000000E+00  0.00000000E+00  0.00000000E+00
  0.00000000E+00  0.00000000E+00  0.00000000E+00
  0.00000000E+00  0.00000000E+00  0.00000000E+00
  0.00000000E+00  0.00000000E+00  0.00000000E+00
  0.00000000E+00  0.00000000E+00  0.00000000E+00
  0.00000000E+00  0.00000000E+00  0.00000000E+00
  0.00000000E+00  0.00000000E+00  0.00000000E+00
  0.00000000E+00  0.00000000E+00  0.00000000E+00
  0.00000000E+00  0.00000000E+00  0.00000000E+00
  0.00000000E+00  0.00000000E+00  0.00000000E+00
  0.00000000E+00  0.00000000E+00  0.00000000E+00
  0.00000000E+00  0.00000000E+00  0.00000000E+00
  0.00000000E+00  0.00000000E+00  0.00000000E+00
  0.00000000E+00  0.00000000E+00  0.00000000E+00
  0.00000000E+00  0.00000000E+00  0.00000000E+00
  0.00000000E+00  0.00000000E+00  0.00000000E+00
  0.00000000E+00  0.00000000E+00  0.00000000E+00
  0.00000000E+00  0.00000000E+00  0.00000000E+00
  0.00000000E+00  0.00000000E+00  0.00000000E+00
  0.00000000E+00  0.00000000E+00  0.00000000E+00
  0.00000000E+00  0.00000000E+00  0.00000000E+00
  0.00000000E+00  0.00000000E+00  0.00000000E+00
  0.00000000E+00  0.00000000E+00  0.00000000E+00
  0.00000000E+00  0.00000000E+00  0.00000000E+00
  0.00000000E+00  0.00000000E+00  0.00000000E+00
  0.00000000E+00  0.00000000E+00  0.00000000E+00
  0.00000000E+00  0.00000000E+00  0.00000000E+00
  0.00000000E+00  0.00000000E+00  0.00000000E+00
  0.00000000E+00  0.00000000E+00  0.00000000E+00
  0.00000000E+00  0.00000000E+00  0.00000000E+00
  0.00000000E+00  0.00000000E+00  0.00000000E+00
  0.00000000E+00  0.00000000E+00  0.00000000E+00
  0.00000000E+00  0.00000000E+00  0.00000000E+00
  0.00000000E+00  0.00000000E+00  0.00000000E+00
  0.00000000E+00  0.00000000E+00  0.00000000E+00
  0.00000000E+00  0.00000000E+00  0.00000000E+00
  0.00000000E+00  0.00000000E+00  0.00000000E+00
  0.00000000E+00  0.00000000E+00  0.00000000E+00
  0.00000000E+00  0.00000000E+00  0.00000000E+00
  0.00000000E+00  0.00000000E+00  0.00000000E+00
  0.00000000E+00  0.00000000E+00  0.00000000E+00
  0.00000000E+00  0.00000000E+00  0.00000000E+00
  0.00000000E+00  0.00000000E+00  0.00000000E+00
  0.00000000E+00  0.00000000E+00  0.00000000E+00
  0.00000000E+00  0.00000000E+00  0.00000000E+00
