generated by phonopy                    
   1.0000000000000000     
     8.3871423140825687    0.0000000000000000    0.0000000000000000
     0.0000000000000000    8.3871423140825687    0.0000000000000000
     0.0000000000000000    0.0000000000000000    8.3871423140825687
   Mg   O 
    33    31
Direct
  0.7499993318589125  0.4999995407996541  0.5000002264163917
  0.0019895691940353  0.0000004359574663 -0.0000000204922444
  0.4980105602612711 -0.0000004825113117  0.0000000966167760
  0.0049693858094998  0.5000004026989981 -0.0000000696790807
  0.4950306492236838  0.4999995617866731  0.0000000331209872
  0.0049676961143543  0.0000005093177107  0.5000000587649462
  0.4950324073508598 -0.0000004300870656  0.5000000505204887
  0.0339251337504742  0.5000005051239119  0.5000001757862972
  0.4660770188399313  0.4999991651435965  0.4999999922691151
  0.0001745822606863  0.2498250646273683  0.2498257226897310
  0.4998245578303973  0.2498242850670074  0.2498258021363756
  0.0001754971108295  0.7501757010084423  0.2498258550917883
  0.4998253805132072  0.7501747954533748  0.2498258435244753
  0.0001745157867503  0.2498251851408095  0.7501740988705959
  0.4998245175228451  0.2498244096652917  0.7501740433792580
  0.0001754713247965  0.7501757337747652  0.7501742811051664
  0.4998253375737730  0.7501748344569971  0.7501742087200081
  0.2500000229608922 -0.0000000941128915  0.2480114501255252
  0.7500000567097805 -0.0000000521194525  0.2450332526066722
  0.2499999601105178  0.4999999745586315  0.2450317120042619
  0.7500000291859434  0.5000000264287418  0.2160763047468514
  0.2500000172093937  0.0000000632192610  0.7519887275625229
  0.7500000512287832  0.0000000734215435  0.7549668257772548
  0.2500000201368301  0.5000000435126457  0.7549683280162611
  0.7499998547687660  0.5000000546505140  0.7839214563811248
  0.2499995177688489  0.2480107169108849 -0.0000000463617422
  0.7499995766294943  0.2450309959052008 -0.0000000607498393
  0.2500004839655917  0.7519891596720232  0.0000000517764265
  0.7500005180452223  0.7549691558338399 -0.0000000068490646
  0.2499995491984592  0.2450314477117827  0.4999999867239172
  0.7499993053707887  0.2160745548665707  0.4999998734886124
  0.2500005155317434  0.7549685036880343  0.5000000453249651
  0.7500006584403214  0.7839277240379667  0.5000002405447481
  0.2500001379656125 -0.0000002461276265  0.0000002466074343
  0.7499999722406548  0.0000000834829397  0.0000000026519753
  0.2499999828056838  0.5000000837014619 -0.0000000166983898
  0.7500001424545695  0.5000001256844698  0.0000017879267905
  0.2499998939766794 -0.0000000466545461  0.4999999330746996
  0.7500001380383403 -0.0000019554038111  0.4999999626864456
  0.2499979282921012  0.4999999524637950  0.4999999017619444
  0.2499994273538460  0.2521649842311012  0.2521653306465739
  0.7499997088377799  0.2573062207579928  0.2573053288137241
  0.2500003186740534  0.7478348165459854  0.2521654677674817
  0.7500006191918671  0.7426939520625123  0.2573057256733914
  0.2499995930377868  0.2521650192706167  0.7478348204680308
  0.7499994752325214  0.2573062470815218  0.7426941098213037
  0.2500005233099649  0.7478350655168348  0.7478343766486988
  0.7500002314371098  0.7426942787621409  0.7426948980398935
 -0.0021653056670724  0.0000002084934792  0.2521652791430994
  0.5021654288253022 -0.0000006173654984  0.2521656208249707
 -0.0073050636064396  0.5000004837245264  0.2573051258581947
  0.5073051989498046  0.4999996640980567  0.2573049336357240
 -0.0021651763282384  0.0000005409778203  0.7478345268893254
  0.5021651425595975 -0.0000001576170092  0.7478345850475528
 -0.0073050693215705  0.5000004492278631  0.7426949505530730
  0.5073050122635179  0.4999995478815395  0.7426947830177565
 -0.0021660482333938  0.2521654682017110 -0.0000000345705832
  0.5021652497382432  0.2521647183850809  0.0000003366751783
 -0.0021652023927181  0.7478353639076332 -0.0000003344583252
  0.5021660291702126  0.7478344948722029  0.0000000753337650
 -0.0073052045558515  0.2573059628069224  0.4999999271520664
  0.5073041210150929  0.2573048564912679  0.4999994811310248
 -0.0073044358266792  0.7426949540839340  0.5000003843868973
  0.5073054809739362  0.7426939148460946  0.4999999435307091

  0.00000000E+00  0.00000000E+00  0.00000000E+00
  0.00000000E+00  0.00000000E+00  0.00000000E+00
  0.00000000E+00  0.00000000E+00  0.00000000E+00
  0.00000000E+00  0.00000000E+00  0.00000000E+00
  0.00000000E+00  0.00000000E+00  0.00000000E+00
  0.00000000E+00  0.00000000E+00  0.00000000E+00
  0.00000000E+00  0.00000000E+00  0.00000000E+00
  0.00000000E+00  0.00000000E+00  0.00000000E+00
  0.00000000E+00  0.00000000E+00  0.00000000E+00
  0.00000000E+00  0.00000000E+00  0.00000000E+00
  0.00000000E+00  0.00000000E+00  0.00000000E+00
  0.00000000E+00  0.00000000E+00  0.00000000E+00
  0.00000000E+00  0.00000000E+00  0.00000000E+00
  0.00000000E+00  0.00000000E+00  0.00000000E+00
  0.00000000E+00  0.00000000E+00  0.00000000E+00
  0.00000000E+00  0.00000000E+00  0.00000000E+00
  0.00000000E+00  0.00000000E+00  0.00000000E+00
  0.00000000E+00  0.00000000E+00  0.00000000E+00
  0.00000000E+00  0.00000000E+00  0.00000000E+00
  0.00000000E+00  0.00000000E+00  0.00000000E+00
  0.00000000E+00  0.00000000E+00  0.00000000E+00
  0.00000000E+00  0.00000000E+00  0.00000000E+00
  0.00000000E+00  0.00000000E+00  0.00000000E+00
  0.00000000E+00  0.00000000E+00  0.00000000E+00
  0.00000000E+00  0.00000000E+00  0.00000000E+00
  0.00000000E+00  0.00000000E+00  0.00000000E+00
  0.00000000E+00  0.00000000E+00  0.00000000E+00
  0.00000000E+00  0.00000000E+00  0.00000000E+00
  0.00000000E+00  0.00000000E+00  0.00000000E+00
  0.00000000E+00  0.00000000E+00  0.00000000E+00
  0.00000000E+00  0.00000000E+00  0.00000000E+00
  0.00000000E+00  0.00000000E+00  0.00000000E+00
  0.00000000E+00  0.00000000E+00  0.00000000E+00
  0.00000000E+00  0.00000000E+00  0.00000000E+00
  0.00000000E+00  0.00000000E+00  0.00000000E+00
  0.00000000E+00  0.00000000E+00  0.00000000E+00
  0.00000000E+00  0.00000000E+00  0.00000000E+00
  0.00000000E+00  0.00000000E+00  0.00000000E+00
  0.00000000E+00  0.00000000E+00  0.00000000E+00
  0.00000000E+00  0.00000000E+00  0.00000000E+00
  0.00000000E+00  0.00000000E+00  0.00000000E+00
  0.00000000E+00  0.00000000E+00  0.00000000E+00
  0.00000000E+00  0.00000000E+00  0.00000000E+00
  0.00000000E+00  0.00000000E+00  0.00000000E+00
  0.00000000E+00  0.00000000E+00  0.00000000E+00
  0.00000000E+00  0.00000000E+00  0.00000000E+00
  0.00000000E+00  0.00000000E+00  0.00000000E+00
  0.00000000E+00  0.00000000E+00  0.00000000E+00
  0.00000000E+00  0.00000000E+00  0.00000000E+00
  0.00000000E+00  0.00000000E+00  0.00000000E+00
  0.00000000E+00  0.00000000E+00  0.00000000E+00
  0.00000000E+00  0.00000000E+00  0.00000000E+00
  0.00000000E+00  0.00000000E+00  0.00000000E+00
  0.00000000E+00  0.00000000E+00  0.00000000E+00
  0.00000000E+00  0.00000000E+00  0.00000000E+00
  0.00000000E+00  0.00000000E+00  0.00000000E+00
  0.00000000E+00  0.00000000E+00  0.00000000E+00
  0.00000000E+00  0.00000000E+00  0.00000000E+00
  0.00000000E+00  0.00000000E+00  0.00000000E+00
  0.00000000E+00  0.00000000E+00  0.00000000E+00
  0.00000000E+00  0.00000000E+00  0.00000000E+00
  0.00000000E+00  0.00000000E+00  0.00000000E+00
  0.00000000E+00  0.00000000E+00  0.00000000E+00
  0.00000000E+00  0.00000000E+00  0.00000000E+00
