generated by phonopy                    
   1.0000000000000000     
     8.3871423140825687    0.0000000000000000    0.0000000000000000
     0.0000000000000000    8.3871423140825687    0.0000000000000000
     0.0000000000000000    0.0000000000000000    8.3871423140825687
   Mg   O 
    32    31
Direct
 -0.0000000000000000  0.0013338104064218 -0.0000000000000000
  0.5000000000000000  0.0024480699480155 -0.0000000000000000
 -0.0000000000000000  0.4986661895935783 -0.0000000000000000
  0.5000000000000000  0.4975519300519844 -0.0000000000000000
 -0.0000000000000000  0.0024480699480155  0.5000000000000000
  0.5000000000000000  0.0204998673315211  0.5000000000000000
 -0.0000000000000000  0.4975519300519844  0.5000000000000000
  0.5000000000000000  0.4795001326684789  0.5000000000000000
 -0.0000000000000000  0.2500000000000000  0.2486661895935783
  0.5000000000000000  0.2500000000000000  0.2475519300519845
 -0.0000000000000000  0.7500000000000000  0.2475519300519845
  0.5000000000000000  0.7500000000000000  0.2295001326684790
 -0.0000000000000000  0.2500000000000000  0.7513338104064218
  0.5000000000000000  0.2500000000000000  0.7524480699480155
 -0.0000000000000000  0.7500000000000000  0.7524480699480155
  0.5000000000000000  0.7500000000000000  0.7704998673315211
  0.2500850881578924 -0.0000850881578924  0.2500850881578924
  0.7499149118421077 -0.0000850881578924  0.2500850881578924
  0.2500850881578924  0.5000850881578924  0.2500850881578924
  0.7499149118421077  0.5000850881578924  0.2500850881578924
  0.2500850881578924 -0.0000850881578924  0.7499149118421077
  0.7499149118421077 -0.0000850881578924  0.7499149118421077
  0.2500850881578924  0.5000850881578924  0.7499149118421077
  0.7499149118421077  0.5000850881578924  0.7499149118421077
  0.2486661895935783  0.2500000000000000 -0.0000000000000000
  0.7513338104064218  0.2500000000000000 -0.0000000000000000
  0.2475519300519845  0.7500000000000000 -0.0000000000000000
  0.7524480699480155  0.7500000000000000 -0.0000000000000000
  0.2475519300519845  0.2500000000000000  0.5000000000000000
  0.7524480699480155  0.2500000000000000  0.5000000000000000
  0.2295001326684790  0.7500000000000000  0.5000000000000000
  0.7704998673315211  0.7500000000000000  0.5000000000000000
  0.2514617857663012 -0.0014617857663012 -0.0000000000000000
  0.7485382142336988 -0.0014617857663012 -0.0000000000000000
  0.2514617857663012  0.5014617857663012 -0.0000000000000000
  0.7485382142336988  0.5014617857663012 -0.0000000000000000
  0.2557126912906181 -0.0057126912906180  0.5000000000000000
  0.7442873087093820 -0.0057126912906180  0.5000000000000000
  0.2557126912906181  0.5057126912906180  0.5000000000000000
  0.7442873087093820  0.5057126912906180  0.5000000000000000
  0.2514617857663012  0.2500000000000000  0.2514617857663012
  0.7485382142336988  0.2500000000000000  0.2514617857663012
  0.2557126912906181  0.7500000000000000  0.2557126912906181
  0.7442873087093820  0.7500000000000000  0.2557126912906181
  0.2514617857663012  0.2500000000000000  0.7485382142336988
  0.7485382142336988  0.2500000000000000  0.7485382142336988
  0.2557126912906181  0.7500000000000000  0.7442873087093820
  0.7442873087093820  0.7500000000000000  0.7442873087093820
 -0.0000000000000000 -0.0014617857663012  0.2514617857663012
  0.5000000000000000 -0.0057126912906180  0.2557126912906181
 -0.0000000000000000  0.5014617857663012  0.2514617857663012
  0.5000000000000000  0.5057126912906180  0.2557126912906181
 -0.0000000000000000 -0.0014617857663012  0.7485382142336988
  0.5000000000000000 -0.0057126912906180  0.7442873087093820
 -0.0000000000000000  0.5014617857663012  0.7485382142336988
  0.5000000000000000  0.5057126912906180  0.7442873087093820
 -0.0000000000000000  0.2500000000000000 -0.0000000000000000
  0.5000000000000000  0.2500000000000000 -0.0000000000000000
 -0.0000000000000000  0.7500000000000000 -0.0000000000000000
  0.5000000000000000  0.7500000000000000 -0.0000000000000000
 -0.0000000000000000  0.2500000000000000  0.5000000000000000
  0.5000000000000000  0.2500000000000000  0.5000000000000000
 -0.0000000000000000  0.7500000000000000  0.5000000000000000

  0.00000000E+00  0.00000000E+00  0.00000000E+00
  0.00000000E+00  0.00000000E+00  0.00000000E+00
  0.00000000E+00  0.00000000E+00  0.00000000E+00
  0.00000000E+00  0.00000000E+00  0.00000000E+00
  0.00000000E+00  0.00000000E+00  0.00000000E+00
  0.00000000E+00  0.00000000E+00  0.00000000E+00
  0.00000000E+00  0.00000000E+00  0.00000000E+00
  0.00000000E+00  0.00000000E+00  0.00000000E+00
  0.00000000E+00  0.00000000E+00  0.00000000E+00
  0.00000000E+00  0.00000000E+00  0.00000000E+00
  0.00000000E+00  0.00000000E+00  0.00000000E+00
  0.00000000E+00  0.00000000E+00  0.00000000E+00
  0.00000000E+00  0.00000000E+00  0.00000000E+00
  0.00000000E+00  0.00000000E+00  0.00000000E+00
  0.00000000E+00  0.00000000E+00  0.00000000E+00
  0.00000000E+00  0.00000000E+00  0.00000000E+00
  0.00000000E+00  0.00000000E+00  0.00000000E+00
  0.00000000E+00  0.00000000E+00  0.00000000E+00
  0.00000000E+00  0.00000000E+00  0.00000000E+00
  0.00000000E+00  0.00000000E+00  0.00000000E+00
  0.00000000E+00  0.00000000E+00  0.00000000E+00
  0.00000000E+00  0.00000000E+00  0.00000000E+00
  0.00000000E+00  0.00000000E+00  0.00000000E+00
  0.00000000E+00  0.00000000E+00  0.00000000E+00
  0.00000000E+00  0.00000000E+00  0.00000000E+00
  0.00000000E+00  0.00000000E+00  0.00000000E+00
  0.00000000E+00  0.00000000E+00  0.00000000E+00
  0.00000000E+00  0.00000000E+00  0.00000000E+00
  0.00000000E+00  0.00000000E+00  0.00000000E+00
  0.00000000E+00  0.00000000E+00  0.00000000E+00
  0.00000000E+00  0.00000000E+00  0.00000000E+00
  0.00000000E+00  0.00000000E+00  0.00000000E+00
  0.00000000E+00  0.00000000E+00  0.00000000E+00
  0.00000000E+00  0.00000000E+00  0.00000000E+00
  0.00000000E+00  0.00000000E+00  0.00000000E+00
  0.00000000E+00  0.00000000E+00  0.00000000E+00
  0.00000000E+00  0.00000000E+00  0.00000000E+00
  0.00000000E+00  0.00000000E+00  0.00000000E+00
  0.00000000E+00  0.00000000E+00  0.00000000E+00
  0.00000000E+00  0.00000000E+00  0.00000000E+00
  0.00000000E+00  0.00000000E+00  0.00000000E+00
  0.00000000E+00  0.00000000E+00  0.00000000E+00
  0.00000000E+00  0.00000000E+00  0.00000000E+00
  0.00000000E+00  0.00000000E+00  0.00000000E+00
  0.00000000E+00  0.00000000E+00  0.00000000E+00
  0.00000000E+00  0.00000000E+00  0.00000000E+00
  0.00000000E+00  0.00000000E+00  0.00000000E+00
  0.00000000E+00  0.00000000E+00  0.00000000E+00
  0.00000000E+00  0.00000000E+00  0.00000000E+00
  0.00000000E+00  0.00000000E+00  0.00000000E+00
  0.00000000E+00  0.00000000E+00  0.00000000E+00
  0.00000000E+00  0.00000000E+00  0.00000000E+00
  0.00000000E+00  0.00000000E+00  0.00000000E+00
  0.00000000E+00  0.00000000E+00  0.00000000E+00
  0.00000000E+00  0.00000000E+00  0.00000000E+00
  0.00000000E+00  0.00000000E+00  0.00000000E+00
  0.00000000E+00  0.00000000E+00  0.00000000E+00
  0.00000000E+00  0.00000000E+00  0.00000000E+00
  0.00000000E+00  0.00000000E+00  0.00000000E+00
  0.00000000E+00  0.00000000E+00  0.00000000E+00
  0.00000000E+00  0.00000000E+00  0.00000000E+00
  0.00000000E+00  0.00000000E+00  0.00000000E+00
  0.00000000E+00  0.00000000E+00  0.00000000E+00
