generated by phonopy                    
   1.0000000000000000     
     8.3871423140825687    0.0000000000000000    0.0000000000000000
     0.0000000000000000    8.3871423140825687    0.0000000000000000
     0.0000000000000000    0.0000000000000000    8.3871423140825687
   Mg   O 
    31    33
Direct
 -0.0000000955867599  0.9999999744272196  0.9999999796066016
  0.4999999360507189  0.0000000047672420  0.9999999745804254
  1.0000000576442503  0.4999998084531536  1.0000000173626602
  0.5000000529313677  0.4999999566733964 -0.0000000269524633
  0.9999999511620253 -0.0000000259906093  0.5000000108661345
  0.4999999668518337 -0.0000000128884953  0.4999999957382085
  0.0000000620056552  0.4999999424712661  0.5000000632131953
  1.0000036528026264  0.2510174777268389  0.2509713674070185
  0.5000306831865746  0.2540951207022812  0.2536234732800303
  0.9999959209412310  0.7489953567664792  0.2509571649233387
  0.4999903834758065  0.7460837756091279  0.2534515838833438
  0.0000040455719537  0.2510044142394303  0.7490428196032080
  0.5000095858057895  0.2539158981002772  0.7465486178764328
 -0.0000037057124177  0.7489825726044685  0.7490284331970009
  0.4999693361694563  0.7459050763947115  0.7463765278824350
  0.2510085929932793  1.0000097959059597  0.2510222772753486
  0.7489918743935200  1.0000071954226681  0.2510221875403726
  0.2538411823137722  0.5000386990688113  0.2538781595113282
  0.7462319603411508  0.4999999333676652  0.2538060869224122
  0.2510077645180840 -0.0000073256261221  0.7489778045550544
  0.7489913926144213 -0.0000098239581933  0.7489774849365899
  0.2537678821766855  0.4999999304314119  0.7461940496496690
  0.7461592207161597  0.4999613088845630  0.7461218399274485
  0.2509568798828666  0.2510180647378519  1.0000131708270399
  0.7490513902327222  0.2510106410399808  1.0000139651562174
  0.2509485185067483  0.7489891655855880 -0.0000138651622163
  0.7490429521491964  0.7489817562764681 -0.0000131172493835
  0.2536347608563257  0.2541391916194108  0.5000285153980868
  0.7465847661148379  0.2539156937495277  0.5000083125579260
  0.2534149014338818  0.7460845231669653  0.4999918189006916
  0.7463650870997696  0.7458610174523991  0.4999716033206908
  0.2492232244287272 -0.0000021242342040  0.9999948908368751
  0.7507763917443464  1.0000019437794307  1.0000055050201644
  0.2480452692463318  0.5000038631539722  1.0000294181469913
  0.7519553813387836  0.4999957142451743 -0.0000293736519323
  0.2481867845247949  0.0000203362944639  0.5000024896000017
  0.7518129401214534  0.9999792336706389  0.4999976826788958
  0.2336987156613230  0.5001983470979675  0.5000974314540768
  0.7663009908759041  0.4998023681507726  0.4999034330034920
  0.2504519062148135  0.2504271859303027  0.2504902668772120
  0.7495584333284584  0.2503950381304740  0.2504528167475843
  0.2503917599031953  0.7496162103093086  0.2504141930825365
  0.7495889084412536  0.7496248619445650  0.2504620487603617
  0.2504098019239347  0.2503743195709102  0.7495388440071806
  0.7496084298066307  0.2503832808724080  0.7495850859511959
  0.2504409213148424  0.7496049274683602  0.7495469862321644
  0.7495488439997617  0.7495738803454605  0.7495093817059655
  0.9999943423410413  0.0000120599029825  0.2492318029959770
  0.5000032672969342 -0.0000006107383282  0.2481855255690234
  1.0000326081620983  0.4999927929861717  0.2480391480040093
  0.5001008468803123  0.5001363582042383  0.2340135124423175
  1.0000053871461898  0.9999876257402593  0.7507677730211759
  0.4999967874001214  1.0000012708347281  0.7518135789253716
 -0.0000318947374272  0.5000061600942658  0.7519601992036785
  0.4999007843449041  0.4998644511104002  0.7659859387629149
 -0.0000025198637624  0.2491908001988503  0.0000112459306054
  0.5000040152505246  0.2479918041783782  0.0000611331671557
  1.0000021768058893  0.7508085432235336  0.9999892511216951
  0.4999955601247375  0.7520079119292350  0.9999380859914356
  0.0000568334712544  0.2479658997008158  0.4999941251183956
  0.5001899700607929  0.2330894768499486  0.5001092122167006
  0.9999440560798890  0.7520357127180737  0.5000059663945059
  0.4998098521843287  0.7669108542229652  0.4998912186726905
  0.5000002645340834  0.5000003949317551  0.5000008854747352

  0.00000000E+00  0.00000000E+00  0.00000000E+00
  0.00000000E+00  0.00000000E+00  0.00000000E+00
  0.00000000E+00  0.00000000E+00  0.00000000E+00
  0.00000000E+00  0.00000000E+00  0.00000000E+00
  0.00000000E+00  0.00000000E+00  0.00000000E+00
  0.00000000E+00  0.00000000E+00  0.00000000E+00
  0.00000000E+00  0.00000000E+00  0.00000000E+00
  0.00000000E+00  0.00000000E+00  0.00000000E+00
  0.00000000E+00  0.00000000E+00  0.00000000E+00
  0.00000000E+00  0.00000000E+00  0.00000000E+00
  0.00000000E+00  0.00000000E+00  0.00000000E+00
  0.00000000E+00  0.00000000E+00  0.00000000E+00
  0.00000000E+00  0.00000000E+00  0.00000000E+00
  0.00000000E+00  0.00000000E+00  0.00000000E+00
  0.00000000E+00  0.00000000E+00  0.00000000E+00
  0.00000000E+00  0.00000000E+00  0.00000000E+00
  0.00000000E+00  0.00000000E+00  0.00000000E+00
  0.00000000E+00  0.00000000E+00  0.00000000E+00
  0.00000000E+00  0.00000000E+00  0.00000000E+00
  0.00000000E+00  0.00000000E+00  0.00000000E+00
  0.00000000E+00  0.00000000E+00  0.00000000E+00
  0.00000000E+00  0.00000000E+00  0.00000000E+00
  0.00000000E+00  0.00000000E+00  0.00000000E+00
  0.00000000E+00  0.00000000E+00  0.00000000E+00
  0.00000000E+00  0.00000000E+00  0.00000000E+00
  0.00000000E+00  0.00000000E+00  0.00000000E+00
  0.00000000E+00  0.00000000E+00  0.00000000E+00
  0.00000000E+00  0.00000000E+00  0.00000000E+00
  0.00000000E+00  0.00000000E+00  0.00000000E+00
  0.00000000E+00  0.00000000E+00  0.00000000E+00
  0.00000000E+00  0.00000000E+00  0.00000000E+00
  0.00000000E+00  0.00000000E+00  0.00000000E+00
  0.00000000E+00  0.00000000E+00  0.00000000E+00
  0.00000000E+00  0.00000000E+00  0.00000000E+00
  0.00000000E+00  0.00000000E+00  0.00000000E+00
  0.00000000E+00  0.00000000E+00  0.00000000E+00
  0.00000000E+00  0.00000000E+00  0.00000000E+00
  0.00000000E+00  0.00000000E+00  0.00000000E+00
  0.00000000E+00  0.00000000E+00  0.00000000E+00
  0.00000000E+00  0.00000000E+00  0.00000000E+00
  0.00000000E+00  0.00000000E+00  0.00000000E+00
  0.00000000E+00  0.00000000E+00  0.00000000E+00
  0.00000000E+00  0.00000000E+00  0.00000000E+00
  0.00000000E+00  0.00000000E+00  0.00000000E+00
  0.00000000E+00  0.00000000E+00  0.00000000E+00
  0.00000000E+00  0.00000000E+00  0.00000000E+00
  0.00000000E+00  0.00000000E+00  0.00000000E+00
  0.00000000E+00  0.00000000E+00  0.00000000E+00
  0.00000000E+00  0.00000000E+00  0.00000000E+00
  0.00000000E+00  0.00000000E+00  0.00000000E+00
  0.00000000E+00  0.00000000E+00  0.00000000E+00
  0.00000000E+00  0.00000000E+00  0.00000000E+00
  0.00000000E+00  0.00000000E+00  0.00000000E+00
  0.00000000E+00  0.00000000E+00  0.00000000E+00
  0.00000000E+00  0.00000000E+00  0.00000000E+00
  0.00000000E+00  0.00000000E+00  0.00000000E+00
  0.00000000E+00  0.00000000E+00  0.00000000E+00
  0.00000000E+00  0.00000000E+00  0.00000000E+00
  0.00000000E+00  0.00000000E+00  0.00000000E+00
  0.00000000E+00  0.00000000E+00  0.00000000E+00
  0.00000000E+00  0.00000000E+00  0.00000000E+00
  0.00000000E+00  0.00000000E+00  0.00000000E+00
  0.00000000E+00  0.00000000E+00  0.00000000E+00
  0.00000000E+00  0.00000000E+00  0.00000000E+00
