generated by phonopy                    
   1.0000000000000000     
     8.3871423140825687    0.0000000000000000    0.0000000000000000
     0.0000000000000000    8.3871423140825687    0.0000000000000000
     0.0000000000000000    0.0000000000000000    8.3871423140825687
   Mg   O 
    33    31
Direct
  0.7501029028644881  0.5001673058067062  0.4999771348033992
  0.0013188754345054  0.9988403422013042  0.9988089118228285
  0.4986872697438406  0.0011550540907137  0.0011914361428271
  0.0062254498711900  0.4994020085816827  0.9951537661365076
  0.4937606686707094  0.5005871507338663  0.0048416517176845
  0.0062091733967615  0.9951996357283788  0.4994029786918995
  0.4937644217719759  0.0048190142242421  0.5005813240303423
  0.0268141879081306  0.4866267645466294  0.4866316715589450
  0.4732716714079619  0.5132615170687825  0.5133460644865274
  0.0029847130843862  0.2470150074307377  0.2470065112226682
  0.5037796326956553  0.2502612390734145  0.2502738345046098
  0.9997115178951441  0.7461748673987700  0.2503052291097647
  0.5002978775245184  0.7496847496380218  0.2538459630874590
  0.9996996190467968  0.2503043938124780  0.7461723524688202
  0.5002783674420249  0.2538219466223687  0.7497004352581611
  0.9961905708025467  0.7497295306964585  0.7497244900897749
  0.4970296346075638  0.7529618733635804  0.7529785436640766
  0.2511897397509391  0.9987949767891238  0.2486868160742311
  0.7505927329073826  0.9951498963849489  0.2437981529263999
  0.2548544995906981  0.4994036049715427  0.2437959556790740
  0.7633100548704637  0.4865850361633230  0.2231906835135817
  0.2488053986888596  0.0012048177193080  0.7513001565853727
  0.7494278594815618  0.0048779345872452  0.7562182993361738
  0.2451432419860392  0.5005898444668690  0.7562061500844777
  0.7366650903841794  0.5133104641285762  0.7767625694906102
  0.2511554030674998  0.2486764793341275  0.9987964930583502
  0.7505969343551016  0.2437662928658974  0.9951534383779995
  0.2488407464251338  0.7513018244418217  0.0012071283089651
  0.7494152603091381  0.7562209176750248  0.0048671525844384
  0.2548062845520221  0.2437805585491869  0.4993990841952298
  0.7632803467412446  0.2232713690659582  0.4866206346327428
  0.2451751617291948  0.7562065069180042  0.5005983909799385
  0.7366678885130229  0.7768220832678134  0.5133942292622933
  0.2499978935310296  0.9999953879145748  0.9999989495425647
  0.7500105438653120  0.9999966423185015  1.0000092179300766
  0.2499985579994249  0.4999967046447406  0.9999950409410804
  0.7499961548009738  0.4999906896948432  0.9999863810842289
  0.2499874536242541  0.9999943727847164  0.4999939327561184
  0.7500015719514954  0.0000309514182331  0.4999939231820328
  0.2500250092343622  0.4999958052355931  0.5000072630732084
  0.2538953092095725  0.2487230956037267  0.2487815488865561
  0.7512572895684260  0.2345967284833613  0.2345791406416431
  0.2500264432826130  0.7495254290615405  0.2505328227839347
  0.7499909365393115  0.7471813967126835  0.2528570686712936
  0.2499606796878135  0.2504821909496357  0.7494752787300542
  0.7500181571187334  0.2528486027885381  0.7472140384816589
  0.2460868804840510  0.7512602284442682  0.7512119164122363
  0.7487455920549552  0.7654250692662501  0.7654148678472865
  0.0012878249502144  0.9960899198257087  0.2487854875557279
  0.5004501036427629 -0.0000320242391801  0.2505134387800166
  0.0154074123525277  0.4987245244135210  0.2345976385522926
  0.5028316899795148  0.4999883144386850  0.2528482569166263
  0.9995566333536020  1.0000262661975758  0.7494823771675700
  0.4987166370864918  0.0039126994004473  0.7512084286532010
  0.9971293413227560  0.4999885711915487  0.7471775764487834
  0.4846164155293514  0.5012567053696030  0.7653947630823682
  0.0012904878781298  0.2487211643384084  0.9960325190960476
  0.5004118191104148  0.2504346773865828  1.0000020991793668
  0.9995870148784261  0.7495708963651528  1.0000032624107338
  0.4987165391814739  0.7512596086774730  0.0039790648464455
  0.0153288907865100  0.2346927888476670  0.4987688659394212
  0.5028743073137828  0.2529193766368167  0.4999844876871534
  0.9970487675175701  0.7471040384656477  0.5000061850151505
  0.4846944446434266  0.7653241690162065  0.5012265238189330

  0.00000000E+00  0.00000000E+00  0.00000000E+00
  0.00000000E+00  0.00000000E+00  0.00000000E+00
  0.00000000E+00  0.00000000E+00  0.00000000E+00
  0.00000000E+00  0.00000000E+00  0.00000000E+00
  0.00000000E+00  0.00000000E+00  0.00000000E+00
  0.00000000E+00  0.00000000E+00  0.00000000E+00
  0.00000000E+00  0.00000000E+00  0.00000000E+00
  0.00000000E+00  0.00000000E+00  0.00000000E+00
  0.00000000E+00  0.00000000E+00  0.00000000E+00
  0.00000000E+00  0.00000000E+00  0.00000000E+00
  0.00000000E+00  0.00000000E+00  0.00000000E+00
  0.00000000E+00  0.00000000E+00  0.00000000E+00
  0.00000000E+00  0.00000000E+00  0.00000000E+00
  0.00000000E+00  0.00000000E+00  0.00000000E+00
  0.00000000E+00  0.00000000E+00  0.00000000E+00
  0.00000000E+00  0.00000000E+00  0.00000000E+00
  0.00000000E+00  0.00000000E+00  0.00000000E+00
  0.00000000E+00  0.00000000E+00  0.00000000E+00
  0.00000000E+00  0.00000000E+00  0.00000000E+00
  0.00000000E+00  0.00000000E+00  0.00000000E+00
  0.00000000E+00  0.00000000E+00  0.00000000E+00
  0.00000000E+00  0.00000000E+00  0.00000000E+00
  0.00000000E+00  0.00000000E+00  0.00000000E+00
  0.00000000E+00  0.00000000E+00  0.00000000E+00
  0.00000000E+00  0.00000000E+00  0.00000000E+00
  0.00000000E+00  0.00000000E+00  0.00000000E+00
  0.00000000E+00  0.00000000E+00  0.00000000E+00
  0.00000000E+00  0.00000000E+00  0.00000000E+00
  0.00000000E+00  0.00000000E+00  0.00000000E+00
  0.00000000E+00  0.00000000E+00  0.00000000E+00
  0.00000000E+00  0.00000000E+00  0.00000000E+00
  0.00000000E+00  0.00000000E+00  0.00000000E+00
  0.00000000E+00  0.00000000E+00  0.00000000E+00
  0.00000000E+00  0.00000000E+00  0.00000000E+00
  0.00000000E+00  0.00000000E+00  0.00000000E+00
  0.00000000E+00  0.00000000E+00  0.00000000E+00
  0.00000000E+00  0.00000000E+00  0.00000000E+00
  0.00000000E+00  0.00000000E+00  0.00000000E+00
  0.00000000E+00  0.00000000E+00  0.00000000E+00
  0.00000000E+00  0.00000000E+00  0.00000000E+00
  0.00000000E+00  0.00000000E+00  0.00000000E+00
  0.00000000E+00  0.00000000E+00  0.00000000E+00
  0.00000000E+00  0.00000000E+00  0.00000000E+00
  0.00000000E+00  0.00000000E+00  0.00000000E+00
  0.00000000E+00  0.00000000E+00  0.00000000E+00
  0.00000000E+00  0.00000000E+00  0.00000000E+00
  0.00000000E+00  0.00000000E+00  0.00000000E+00
  0.00000000E+00  0.00000000E+00  0.00000000E+00
  0.00000000E+00  0.00000000E+00  0.00000000E+00
  0.00000000E+00  0.00000000E+00  0.00000000E+00
  0.00000000E+00  0.00000000E+00  0.00000000E+00
  0.00000000E+00  0.00000000E+00  0.00000000E+00
  0.00000000E+00  0.00000000E+00  0.00000000E+00
  0.00000000E+00  0.00000000E+00  0.00000000E+00
  0.00000000E+00  0.00000000E+00  0.00000000E+00
  0.00000000E+00  0.00000000E+00  0.00000000E+00
  0.00000000E+00  0.00000000E+00  0.00000000E+00
  0.00000000E+00  0.00000000E+00  0.00000000E+00
  0.00000000E+00  0.00000000E+00  0.00000000E+00
  0.00000000E+00  0.00000000E+00  0.00000000E+00
  0.00000000E+00  0.00000000E+00  0.00000000E+00
  0.00000000E+00  0.00000000E+00  0.00000000E+00
  0.00000000E+00  0.00000000E+00  0.00000000E+00
  0.00000000E+00  0.00000000E+00  0.00000000E+00
